!  NUMFREQ B3LYP def2-TZVP CPCM D3 
%pal nprocs 102 end
%cpcm epsilon 78.4 end 
*xyz 0 1 
C   -0.40952142750422 0.24358048912224 -0.42200473796076
H   0.03797800271559 -0.19183756102129 -1.30798514893385
H   -0.25533590658739 1.32143823117561 -0.39311555498262
H   -0.04914487248295 -0.21032536533683 0.49547725275152
N   -1.88480074922116 0.0325045845643 -0.49091271817321
O   -2.5223470438724 0.15166803229637 0.54364630424719
O   -2.38116253777732 -0.22384168703477 -1.57651716467047
H   2.53720866337275 -0.9689594404876 0.53572432541065
O   2.48334731543245 -0.54981490763 1.4039224523673
H   2.44377855592466 0.39558762435198 1.21176498994427
*
