28
Coordinates from ORCA-job /home/rudenko/2025/kie/for_orca/ch2chch2no2_picoline/orca/ts_opt/ts_opt
  C   -2.53367343470194      1.68816614188388     -0.70675211287423
  H   -1.83663722934077      2.13314193535544     -0.00609219160794
  N   -3.39106602555639      0.29859246441546      1.14050236639110
  O   -2.63253520092928      0.86978049590000      1.94220205925636
  O   -4.25914883388021     -0.50046426617845      1.53020083394317
  H   -3.36028358603460      1.79811161506624     -2.65342984154317
  C   -3.20485491029639      0.46329124320620     -0.25991495427486
  H   -4.11634875616913      0.18616156229796     -0.77910445284163
  H   -2.35904321968216     -0.55040661531538     -0.53465283586249
  C   -2.67904125421682      2.21984938411114     -1.92223272694161
  H   -2.11448920184134      3.09403699230308     -2.21971241821492
  C   1.78698345365130     -1.20709944105316     -0.33205598198936
  C   3.02343200083399     -0.78386906765051      0.13326579508432
  C   3.02278399385175      0.18096439559224      1.14377810679483
  C   1.82711579572148      0.67695278554488      1.64298864636994
  C   0.63575523904295      0.20079337500612      1.12372226841583
  N   0.64072555658265     -0.72102382775750      0.15691616667139
  H   1.69436206873556     -1.95069212341838     -1.11321429575939
  H   1.81359558027530      1.42301241759566      2.42490403510804
  H   -0.33466551184497      0.53916513755869      1.46256867348118
  C   4.29774228978558     -1.33593597796011     -0.43336033077388
  H   4.93607680363729     -1.72463821733046      0.36215303840954
  H   4.85790366829497     -0.55242232688834     -0.94867148634833
  H   4.09807898343049     -2.13819619188079     -1.14272849908985
  H   3.96490090482884      0.54170402717296      1.53855947625075
  H   -1.84610972756953     -2.27258912728870     -0.41595308683375
  O   -1.52297301725230     -1.46623676795174     -0.83933814234901
  H   -0.40858642935636     -1.11015002233654     -0.29454810887191
