28
Coordinates from ORCA-job /home/rudenko/2025/kie/for_orca/ch2chch2no2_picoline/orca/ts_opt/ts_opt E -686.378651087390
  C      -2.486337      1.690026     -0.677488
  H      -1.863181      2.165822      0.071164
  N      -3.416358      0.315119      1.146201
  O      -2.677122      0.880074      1.970294
  O      -4.302599     -0.476740      1.510037
  H      -3.118226      1.723195     -2.700754
  C      -3.191126      0.477563     -0.248887
  H      -4.093384      0.212748     -0.790719
  H      -2.364812     -0.551323     -0.512166
  C      -2.517421      2.177685     -1.920033
  H      -1.935504      3.049086     -2.190867
  C       1.754440     -1.222311     -0.314945
  C       2.992788     -0.765197      0.112189
  C       2.997138      0.200611      1.121670
  C       1.804172      0.664071      1.656972
  C       0.610798      0.156978      1.172140
  N       0.610764     -0.766097      0.206369
  H       1.658207     -1.967921     -1.093912
  H       1.794824      1.410285      2.438931
  H      -0.357399      0.474102      1.536751
  C       4.262360     -1.279850     -0.497805
  H       4.955584     -1.611487      0.277327
  H       4.760055     -0.490215     -1.065658
  H       4.065702     -2.114005     -1.170728
  H       3.940483      0.588191      1.487187
  H      -1.896438     -2.298476     -0.457008
  O      -1.541771     -1.477889     -0.823597
  H      -0.445638     -1.164042     -0.242665
28
Coordinates from ORCA-job /home/rudenko/2025/kie/for_orca/ch2chch2no2_picoline/orca/ts_opt/ts_opt E -686.378506952280
  C      -2.444531      1.662479     -0.594566
  H      -1.864830      2.098687      0.210878
  N      -3.533949      0.254290      1.111325
  O      -2.845061      0.776388      2.004221
  O      -4.461235     -0.526827      1.384544
  H      -2.936086      1.778183     -2.653027
  C      -3.203371      0.453738     -0.257615
  H      -4.068483      0.226467     -0.872014
  H      -2.381069     -0.585325     -0.491517
  C      -2.380050      2.191811     -1.818410
  H      -1.762865      3.058026     -2.018561
  C       1.745345     -1.231513     -0.309851
  C       2.986616     -0.754100      0.085432
  C       2.997842      0.259898      1.046411
  C       1.808540      0.749340      1.566739
  C       0.611938      0.218473      1.116730
  N       0.605270     -0.750881      0.197513
  H       1.643861     -2.015108     -1.049864
  H       1.804493      1.532941      2.311237
  H      -0.353725      0.552318      1.473188
  C       4.252183     -1.298896     -0.506732
  H       4.950027     -1.593174      0.279178
  H       4.746806     -0.538253     -1.115346
  H       4.050963     -2.164473     -1.137098
  H       3.943689      0.664580      1.385920
  H      -1.901455     -2.324782     -0.358418
  O      -1.556441     -1.521453     -0.769694
  H      -0.454418     -1.172834     -0.220600
28
Coordinates from ORCA-job /home/rudenko/2025/kie/for_orca/ch2chch2no2_picoline/orca/ts_opt/ts_opt E -686.378438967349
  C      -2.447173      1.652278     -0.670701
  H      -1.904384      2.135876      0.131440
  N      -3.621561      0.345679      1.058028
  O      -2.961513      0.905614      1.948739
  O      -4.590089     -0.385323      1.327759
  H      -2.864728      1.661284     -2.747669
  C      -3.223654      0.463606     -0.302517
  H      -4.058985      0.211497     -0.947460
  H      -2.402208     -0.595353     -0.434514
  C      -2.338938      2.118753     -1.916389
  H      -1.715139      2.974718     -2.138209
  C       1.744649     -1.183223     -0.328889
  C       2.995821     -0.724604      0.058289
  C       3.034293      0.202635      1.102380
  C       1.861322      0.632624      1.705701
  C       0.654186      0.130380      1.253053
  N       0.620014     -0.756055      0.255097
  H       1.622765     -1.907484     -1.124268
  H       1.878494      1.343470      2.519597
  H      -0.296753      0.402003      1.690352
  C       4.243732     -1.204229     -0.621399
  H       4.968523     -1.563381      0.111378
  H       4.714879     -0.388232     -1.174450
  H       4.026462     -2.010696     -1.320866
  H       3.988981      0.584333      1.443514
  H      -1.905144     -2.312859     -0.117526
  O      -1.572549     -1.558248     -0.621335
  H      -0.451302     -1.175062     -0.139136
28
Coordinates from ORCA-job /home/rudenko/2025/kie/for_orca/ch2chch2no2_picoline/orca/ts_opt/ts_opt E -686.378543387496
  C      -2.476867      1.674766     -0.669530
  H      -1.891492      2.152122      0.106588
  N      -3.514755      0.317562      1.107380
  O      -2.824420      0.893270      1.965370
  O      -4.445196     -0.442388      1.426347
  H      -3.018711      1.710228     -2.717595
  C      -3.210350      0.468326     -0.273412
  H      -4.082414      0.209252     -0.864653
  H      -2.379126     -0.574280     -0.482435
  C      -2.450042      2.161835     -1.911804
  H      -1.853137      3.030727     -2.156384
  C       1.757028     -1.206815     -0.320885
  C       3.001206     -0.748502      0.087939
  C       3.019823      0.206169      1.107592
  C       1.834826      0.660528      1.667915
  C       0.635272      0.154845      1.198222
  N       0.620833     -0.757583      0.222810
  H       1.650126     -1.949847     -1.100907
  H       1.836633      1.393720      2.461999
  H      -0.325658      0.450850      1.596779
  C       4.262410     -1.256245     -0.545299
  H       4.966525     -1.596155      0.216186
  H       4.752169     -0.460652     -1.111718
  H       4.056968     -2.083102     -1.224217
  H       3.968250      0.590305      1.463184
  H      -1.895972     -2.312150     -0.309307
  O      -1.551934     -1.518037     -0.739100
  H      -0.441994     -1.168749     -0.201068
28
Coordinates from ORCA-job /home/rudenko/2025/kie/for_orca/ch2chch2no2_picoline/orca/ts_opt/ts_opt E -686.378610216339
  C      -2.419052      1.640787     -0.654067
  H      -1.858162      2.103013      0.149399
  N      -3.603469      0.334316      1.068141
  O      -2.932439      0.876263      1.961380
  O      -4.577693     -0.389165      1.336603
  H      -2.852923      1.681266     -2.727241
  C      -3.210518      0.459479     -0.293705
  H      -4.052422      0.223221     -0.936149
  H      -2.402414     -0.601543     -0.437669
  C      -2.312632      2.119797     -1.895133
  H      -1.676206      2.967797     -2.112072
  C       1.736106     -1.188097     -0.331671
  C       2.983907     -0.722481      0.057929
  C       3.013974      0.218132      1.090404
  C       1.836328      0.652662      1.681686
  C       0.633052      0.139329      1.230571
  N       0.607372     -0.760165      0.244110
  H       1.620481     -1.919793     -1.121107
  H       1.846683      1.378035      2.482821
  H      -0.323048      0.424565      1.648837
  C       4.236849     -1.205656     -0.610113
  H       4.958670     -1.555113      0.130151
  H       4.708569     -0.394024     -1.168994
  H       4.025376     -2.019776     -1.302333
  H       3.965606      0.608442      1.430391
  H      -1.911727     -2.322225     -0.135250
  O      -1.578387     -1.566219     -0.636272
  H      -0.461881     -1.182848     -0.150648
28
Coordinates from ORCA-job /home/rudenko/2025/kie/for_orca/ch2chch2no2_picoline/orca/ts_opt/ts_opt E -686.378690924801
  C      -2.375678      1.617416     -0.646792
  H      -1.807016      2.058493      0.163464
  N      -3.627766      0.347774      1.055200
  O      -2.952589      0.861806      1.960910
  O      -4.622728     -0.352973      1.306027
  H      -2.790120      1.677953     -2.723100
  C      -3.202327      0.455876     -0.299430
  H      -4.036564      0.238515     -0.958332
  H      -2.415415     -0.615978     -0.418660
  C      -2.244557      2.097754     -1.884824
  H      -1.582148      2.927957     -2.092869
  C       1.722624     -1.180812     -0.338533
  C       2.969594     -0.707890      0.045026
  C       2.999788      0.227370      1.082421
  C       1.823039      0.650209      1.684172
  C       0.620637      0.129384      1.239046
  N       0.594986     -0.766182      0.249195
  H       1.607022     -1.907465     -1.132603
  H       1.833249      1.373757      2.486954
  H      -0.335951      0.412579      1.658300
  C       4.221557     -1.176211     -0.635603
  H       4.949699     -1.529465      0.096573
  H       4.685172     -0.355589     -1.188078
  H       4.010810     -1.983789     -1.335604
  H       3.950844      0.623536      1.417249
  H      -1.923260     -2.330877     -0.060850
  O      -1.594725     -1.596175     -0.595632
  H      -0.478176     -1.196971     -0.133625
28
Coordinates from ORCA-job /home/rudenko/2025/kie/for_orca/ch2chch2no2_picoline/orca/ts_opt/ts_opt E -686.378722997679
  C      -2.390037      1.629151     -0.657455
  H      -1.799976      2.070290      0.137317
  N      -3.581781      0.343786      1.075695
  O      -2.882287      0.857204      1.963393
  O      -4.555813     -0.375723      1.353694
  H      -2.868391      1.696972     -2.719799
  C      -3.197610      0.460400     -0.290320
  H      -4.049212      0.237912     -0.924817
  H      -2.406466     -0.605770     -0.436226
  C      -2.300136      2.116297     -1.896497
  H      -1.649952      2.951985     -2.120544
  C       1.728059     -1.186366     -0.337096
  C       2.972715     -0.716991      0.057986
  C       2.995560      0.222566      1.091675
  C       1.814133      0.652421      1.679019
  C       0.614370      0.134312      1.223596
  N       0.595859     -0.765029      0.236820
  H       1.618075     -1.916177     -1.129056
  H       1.818723      1.379003      2.479130
  H      -0.345587      0.422669      1.631609
  C       4.229987     -1.193975     -0.606612
  H       4.948577     -1.546522      0.135279
  H       4.703068     -0.378159     -1.158164
  H       4.023381     -2.004290     -1.304700
  H       3.944553      0.616310      1.435098
  H      -1.918607     -2.329220     -0.123552
  O      -1.587070     -1.581224     -0.637608
  H      -0.474134     -1.191832     -0.157868
28
Coordinates from ORCA-job /home/rudenko/2025/kie/for_orca/ch2chch2no2_picoline/orca/ts_opt/ts_opt E -686.378748549674
  C      -2.351006      1.602232     -0.646389
  H      -1.780832      2.032140      0.168748
  N      -3.652259      0.360971      1.040578
  O      -2.984056      0.866674      1.955481
  O      -4.664184     -0.319917      1.276312
  H      -2.749043      1.672105     -2.725301
  C      -3.198904      0.452800     -0.307429
  H      -4.024823      0.244777     -0.979681
  H      -2.425126     -0.623630     -0.403513
  C      -2.202483      2.081622     -1.882615
  H      -1.524301      2.900503     -2.084778
  C       1.715548     -1.174311     -0.342088
  C       2.962839     -0.696862      0.034890
  C       2.996133      0.230461      1.079273
  C       1.821935      0.641707      1.693841
  C       0.619043      0.116971      1.254415
  N       0.590318     -0.771404      0.258169
  H       1.597976     -1.895601     -1.140751
  H       1.834490      1.359002      2.502202
  H      -0.335963      0.393282      1.681689
  C       4.212054     -1.152674     -0.659288
  H       4.946075     -1.512034      0.064021
  H       4.669285     -0.323932     -1.204876
  H       3.999534     -1.952667     -1.367410
  H       3.947649      0.629266      1.409658
  H      -1.929082     -2.334997     -0.000182
  O      -1.603365     -1.617758     -0.559733
  H      -0.487450     -1.208729     -0.115243
28
Coordinates from ORCA-job /home/rudenko/2025/kie/for_orca/ch2chch2no2_picoline/orca/ts_opt/ts_opt E -686.378803781814
  C      -2.373739      1.616859     -0.667634
  H      -1.761851      2.042176      0.119212
  N      -3.578283      0.351250      1.072461
  O      -2.887344      0.881435      1.956554
  O      -4.577873     -0.331119      1.351652
  H      -2.889146      1.707467     -2.719778
  C      -3.190548      0.455341     -0.295149
  H      -4.044581      0.239206     -0.928738
  H      -2.410585     -0.610767     -0.429856
  C      -2.299078      2.111774     -1.904368
  H      -1.639368      2.938270     -2.134712
  C       1.727629     -1.181684     -0.341651
  C       2.971310     -0.711284      0.055417
  C       2.992679      0.218797      1.097648
  C       1.810795      0.638694      1.691193
  C       0.612146      0.119843      1.233414
  N       0.594900     -0.770667      0.238581
  H       1.619149     -1.904407     -1.140313
  H       1.814144      1.358151      2.497746
  H      -0.348447      0.403464      1.643319
  C       4.229243     -1.177565     -0.615646
  H       4.946985     -1.542215      0.121229
  H       4.703038     -0.353017     -1.153388
  H       4.023185     -1.976509     -1.326882
  H       3.940907      0.612771      1.442947
  H      -1.917215     -2.334833     -0.087721
  O      -1.589278     -1.599365     -0.621786
  H      -0.478773     -1.202068     -0.153751
28
Coordinates from ORCA-job /home/rudenko/2025/kie/for_orca/ch2chch2no2_picoline/orca/ts_opt/ts_opt E -686.378899505795
  C      -2.338602      1.593651     -0.653194
  H      -1.748444      2.008118      0.155696
  N      -3.646632      0.364736      1.038756
  O      -2.981328      0.879246      1.950244
  O      -4.671681     -0.294948      1.275174
  H      -2.774255      1.689552     -2.723161
  C      -3.191795      0.448103     -0.311065
  H      -4.020536      0.245526     -0.981653
  H      -2.428295     -0.624320     -0.400331
  C      -2.207309      2.083989     -1.886787
  H      -1.522638      2.896353     -2.093443
  C       1.715249     -1.172098     -0.344891
  C       2.961598     -0.693474      0.033885
  C       2.993109      0.229327      1.082285
  C       1.818120      0.634936      1.699007
  C       0.616415      0.108744      1.257842
  N       0.589175     -0.775265      0.257620
  H       1.599487     -1.890426     -1.146521
  H       1.829186      1.348692      2.510550
  H      -0.339308      0.382273      1.685359
  C       4.211805     -1.144192     -0.661926
  H       4.943105     -1.512867      0.059493
  H       4.672221     -0.310612     -1.197318
  H       3.999534     -1.936208     -1.379039
  H       3.943810      0.628816      1.414208
  H      -1.926386     -2.338262      0.023995
  O      -1.603368     -1.631684     -0.550455
  H      -0.492238     -1.217709     -0.114331
28
Coordinates from ORCA-job /home/rudenko/2025/kie/for_orca/ch2chch2no2_picoline/orca/ts_opt/ts_opt E -686.378899841026
  C      -2.388703      1.628263     -0.696801
  H      -1.739690      2.049588      0.061854
  N      -3.529343      0.365737      1.088010
  O      -2.795307      0.877965      1.947614
  O      -4.496128     -0.346820      1.403524
  H      -3.003724      1.730630     -2.720687
  C      -3.185847      0.463905     -0.291859
  H      -4.059041      0.239543     -0.895498
  H      -2.403858     -0.597793     -0.445022
  C      -2.374461      2.130308     -1.932771
  H      -1.726656      2.958214     -2.190246
  C       1.734227     -1.183040     -0.339915
  C       2.975892     -0.719467      0.071113
  C       2.991036      0.205172      1.118251
  C       1.805218      0.626609      1.702704
  C       0.608731      0.114987      1.231051
  N       0.597522     -0.770351      0.231297
  H       1.630634     -1.901479     -1.143079
  H       1.803834      1.341431      2.513389
  H      -0.354689      0.400042      1.633410
  C       4.238417     -1.187973     -0.589798
  H       4.944522     -1.565531      0.151824
  H       4.724681     -0.361452     -1.113166
  H       4.035099     -1.978051     -1.311672
  H       3.937526      0.593419      1.474646
  H      -1.912731     -2.329694     -0.131051
  O      -1.582447     -1.587141     -0.653829
  H      -0.474714     -1.197019     -0.173292
28
Coordinates from ORCA-job /home/rudenko/2025/kie/for_orca/ch2chch2no2_picoline/orca/ts_opt/ts_opt E -686.379207544196
  C      -2.367056      1.612691     -0.697092
  H      -1.701962      2.011039      0.060100
  N      -3.545708      0.366955      1.076729
  O      -2.827774      0.888466      1.943129
  O      -4.538353     -0.313486      1.379178
  H      -3.002032      1.753895     -2.711909
  C      -3.179332      0.454286     -0.300897
  H      -4.048048      0.241159     -0.915354
  H      -2.413080     -0.602021     -0.433777
  C      -2.356716      2.131084     -1.925904
  H      -1.695075      2.949110     -2.179955
  C       1.732644     -1.179752     -0.343873
  C       2.974076     -0.712497      0.064064
  C       2.989471      0.208933      1.113985
  C       1.804095      0.623624      1.704055
  C       0.608147      0.107884      1.235304
  N       0.596274     -0.774426      0.232986
  H       1.629459     -1.896323     -1.148827
  H       1.802662      1.336219      2.516742
  H      -0.355024      0.389279      1.640764
  C       4.236179     -1.174786     -0.602106
  H       4.940717     -1.564014      0.135054
  H       4.724909     -0.342546     -1.113882
  H       4.031665     -1.954829     -1.334476
  H       3.935698      0.599936      1.468081
  H      -1.908703     -2.336279     -0.072719
  O      -1.584308     -1.612781     -0.624987
  H      -0.482825     -1.210818     -0.164415
28
Coordinates from ORCA-job /home/rudenko/2025/kie/for_orca/ch2chch2no2_picoline/orca/ts_opt/ts_opt E -686.379030735638
  C      -2.416112      1.638756     -0.736437
  H      -1.683266      2.033834     -0.042562
  N      -3.417318      0.354920      1.117119
  O      -2.660456      0.911726      1.927863
  O      -4.376031     -0.337376      1.493557
  H      -3.252919      1.806838     -2.674125
  C      -3.165484      0.459382     -0.283980
  H      -4.073946      0.224217     -0.829171
  H      -2.384107     -0.580450     -0.481002
  C      -2.536964      2.179732     -1.949659
  H      -1.914961      3.011920     -2.253094
  C       1.754546     -1.192232     -0.340943
  C       2.989735     -0.740618      0.101705
  C       2.986932      0.186166      1.147038
  C       1.790531      0.620374      1.699526
  C       0.601487      0.118881      1.198683
  N       0.607425     -0.768238      0.200276
  H       1.664983     -1.910926     -1.145612
  H       1.775119      1.337767      2.507850
  H      -0.369638      0.416743      1.572598
  C       4.264440     -1.224458     -0.523874
  H       4.936636     -1.628863      0.235014
  H       4.785388     -0.400109     -1.016240
  H       4.069909     -1.998571     -1.265232
  H       3.927659      0.566206      1.526798
  H      -1.885368     -2.326109     -0.226044
  O      -1.557047     -1.570161     -0.730599
  H      -0.461174     -1.189353     -0.229455
28
Coordinates from ORCA-job /home/rudenko/2025/kie/for_orca/ch2chch2no2_picoline/orca/ts_opt/ts_opt E -686.378855598111
  C      -2.493410      1.678290     -0.738326
  H      -1.790960      2.125679     -0.044639
  N      -3.386647      0.345301      1.133896
  O      -2.620530      0.916126      1.928603
  O      -4.280878     -0.418202      1.534659
  H      -3.312585      1.763831     -2.689597
  C      -3.187031      0.474355     -0.268892
  H      -4.099932      0.201452     -0.787938
  H      -2.361667     -0.557717     -0.513155
  C      -2.626988      2.188390     -1.964162
  H      -2.047051      3.047192     -2.276459
  C       1.770883     -1.200197     -0.329838
  C       3.008015     -0.765742      0.123513
  C       3.008640      0.168538      1.162197
  C       1.813527      0.626076      1.698217
  C       0.621579      0.142222      1.187209
  N       0.625004     -0.751675      0.194544
  H       1.677762     -1.922391     -1.130836
  H       1.801055      1.348934      2.501671
  H      -0.348295      0.455417      1.550632
  C       4.281321     -1.273261     -0.485659
  H       4.948398     -1.663322      0.285105
  H       4.809180     -0.464480     -0.996186
  H       4.084098     -2.063769     -1.208806
  H       3.951163      0.536171      1.549604
  H      -1.875776     -2.292313     -0.363407
  O      -1.538294     -1.497637     -0.797733
  H      -0.430581     -1.147267     -0.254219
28
Coordinates from ORCA-job /home/rudenko/2025/kie/for_orca/ch2chch2no2_picoline/orca/ts_opt/ts_opt E -686.378838888620
  C      -2.477911      1.670262     -0.696396
  H      -1.820051      2.121659      0.037292
  N      -3.438549      0.320102      1.128766
  O      -2.696580      0.880185      1.953353
  O      -4.349027     -0.443338      1.492632
  H      -3.177454      1.746922     -2.694170
  C      -3.196736      0.467158     -0.265024
  H      -4.095045      0.208498     -0.815895
  H      -2.370782     -0.570192     -0.500964
  C      -2.538219      2.175921     -1.930027
  H      -1.943600      3.036030     -2.209366
  C       1.762060     -1.201238     -0.332031
  C       3.000922     -0.758493      0.108379
  C       3.005671      0.192307      1.132037
  C       1.812768      0.657362      1.666644
  C       0.619015      0.164033      1.169398
  N       0.618561     -0.745715      0.191461
  H       1.665545     -1.936458     -1.120661
  H       1.803455      1.392980      2.458453
  H      -0.349510      0.481253      1.533296
  C       4.271631     -1.274367     -0.499085
  H       4.949399     -1.637361      0.275537
  H       4.788219     -0.476872     -1.038126
  H       4.072855     -2.086688     -1.197151
  H       3.949693      0.566946      1.508908
  H      -1.881296     -2.298182     -0.335213
  O      -1.548159     -1.506086     -0.777250
  H      -0.436874     -1.146628     -0.244800
28
Coordinates from ORCA-job /home/rudenko/2025/kie/for_orca/ch2chch2no2_picoline/orca/ts_opt/ts_opt E -686.378844161790
  C      -2.500554      1.680624     -0.706190
  H      -1.823136      2.132254      0.009323
  N      -3.403257      0.316241      1.137475
  O      -2.646214      0.879989      1.946077
  O      -4.288643     -0.467173      1.520382
  H      -3.263667      1.765046     -2.680264
  C      -3.195825      0.469176     -0.260640
  H      -4.103262      0.200097     -0.791041
  H      -2.361461     -0.560731     -0.517928
  C      -2.603620      2.193882     -1.933926
  H      -2.024562      3.060293     -2.226141
  C       1.770526     -1.204490     -0.330934
  C       3.007795     -0.769413      0.121207
  C       3.008685      0.184842      1.141680
  C       1.813666      0.660181      1.662241
  C       0.621526      0.173761      1.154389
  N       0.624962     -0.738955      0.179074
  H       1.676873     -1.941717     -1.118010
  H       1.801395      1.398252      2.451729
  H      -0.348530      0.498483      1.507485
  C       4.281017     -1.297250     -0.470439
  H       4.945605     -1.666498      0.312602
  H       4.811763     -0.504746     -1.003035
  H       4.083276     -2.107840     -1.170821
  H       3.951403      0.553795      1.527313
  H      -1.870797     -2.287486     -0.384137
  O      -1.538022     -1.486839     -0.810816
  H      -0.426941     -1.133777     -0.266656
28
Coordinates from ORCA-job /home/rudenko/2025/kie/for_orca/ch2chch2no2_picoline/orca/ts_opt/ts_opt E -686.378842105770
  C      -2.528874      1.689585     -0.716098
  H      -1.828660      2.136607     -0.019915
  N      -3.385203      0.310204      1.139832
  O      -2.628465      0.887872      1.938846
  O      -4.255547     -0.483977      1.534348
  H      -3.361986      1.792270     -2.660557
  C      -3.199804      0.467536     -0.261507
  H      -4.111933      0.187210     -0.777825
  H      -2.355422     -0.549884     -0.532897
  C      -2.677961      2.216286     -1.933308
  H      -2.113382      3.088586     -2.236249
  C       1.784967     -1.208330     -0.328477
  C       3.021593     -0.782077      0.133667
  C       3.021051      0.176426      1.150105
  C       1.825277      0.663797      1.657466
  C       0.633714      0.185483      1.140425
  N       0.638469     -0.730831      0.168297
  H       1.692557     -1.947680     -1.113707
  H       1.811854      1.405151      2.443868
  H      -0.336672      0.519119      1.483837
  C       4.295812     -1.323772     -0.443167
  H       4.944367     -1.705988      0.347131
  H       4.844593     -0.535878     -0.964133
  H       4.097057     -2.128250     -1.150296
  H       3.963235      0.539151      1.542923
  H      -1.854082     -2.277202     -0.420148
  O      -1.523578     -1.470295     -0.836755
  H      -0.412977     -1.121120     -0.285705
28
Coordinates from ORCA-job /home/rudenko/2025/kie/for_orca/ch2chch2no2_picoline/orca/ts_opt/ts_opt E -686.378840661689
  C      -2.528276      1.688967     -0.708969
  H      -1.833112      2.136664     -0.008141
  N      -3.385554      0.303754      1.141326
  O      -2.627253      0.877164      1.941938
  O      -4.252668     -0.495541      1.533054
  H      -3.349793      1.791693     -2.658365
  C      -3.200294      0.465991     -0.259054
  H      -4.111901      0.187154     -0.777105
  H      -2.355020     -0.551020     -0.533831
  C      -2.670747      2.216252     -1.926771
  H      -2.105898      3.089762     -2.225669
  C       1.783251     -1.208593     -0.329455
  C       3.019697     -0.782269      0.133061
  C       3.018850      0.180404      1.145605
  C       1.822980      0.671680      1.649004
  C       0.631636      0.192996      1.131968
  N       0.636780     -0.727264      0.163653
  H       1.690907     -1.951100     -1.111692
  H       1.809323      1.416136      2.432453
  H      -0.338929      0.528739      1.473062
  C       4.294058     -1.328356     -0.439230
  H       4.941233     -1.706932      0.353947
  H       4.844271     -0.543844     -0.963759
  H       4.095378     -2.136477     -1.142198
  H       3.960906      0.543266      1.538577
  H      -1.852971     -2.275258     -0.424392
  O      -1.524127     -1.467089     -0.839802
  H      -0.412727     -1.116879     -0.289215
28
Coordinates from ORCA-job /home/rudenko/2025/kie/for_orca/ch2chch2no2_picoline/orca/ts_opt/ts_opt E -686.378855492871
  C      -2.510585      1.680792     -0.702241
  H      -1.828622      2.126421      0.012586
  N      -3.414506      0.307870      1.135335
  O      -2.660806      0.870600      1.947418
  O      -4.299950     -0.477703      1.513252
  H      -3.286313      1.781235     -2.670390
  C      -3.203349      0.465308     -0.262458
  H      -4.109336      0.197210     -0.795815
  H      -2.365797     -0.559720     -0.520071
  C      -2.620990      2.203772     -1.925145
  H      -2.042849      3.071746     -2.214551
  C       1.777986     -1.204290     -0.332761
  C       3.015448     -0.773062      0.122609
  C       3.016714      0.186333      1.138237
  C       1.821888      0.669861      1.651569
  C       0.629586      0.186423      1.141246
  N       0.632514     -0.730559      0.169879
  H       1.684075     -1.945013     -1.116514
  H       1.809851      1.411584      2.437629
  H      -0.340201      0.515626      1.490757
  C       4.288652     -1.310984     -0.459939
  H       4.943489     -1.687836      0.327747
  H       4.830901     -0.522332     -0.986567
  H       4.089371     -2.118586     -1.163334
  H       3.959617      0.552561      1.526034
  H      -1.860946     -2.285010     -0.377303
  O      -1.534757     -1.486114     -0.812345
  H      -0.421084     -1.126133     -0.274866
28
Coordinates from ORCA-job /home/rudenko/2025/kie/for_orca/ch2chch2no2_picoline/orca/ts_opt/ts_opt E -686.378849674219
  C      -2.520495      1.684784     -0.703714
  H      -1.831465      2.130804      0.004150
  N      -3.397733      0.302051      1.139206
  O      -2.640873      0.869419      1.945234
  O      -4.273301     -0.491216      1.524144
  H      -3.321282      1.788882     -2.661592
  C      -3.201783      0.464429     -0.260005
  H      -4.111217      0.191570     -0.785027
  H      -2.360305     -0.555150     -0.528228
  C      -2.648495      2.211711     -1.923240
  H      -2.077744      3.083186     -2.216784
  C       1.780913     -1.206130     -0.332378
  C       3.017607     -0.778438      0.128264
  C       3.017288      0.184191      1.140857
  C       1.821693      0.674039      1.646329
  C       0.630155      0.193791      1.131265
  N       0.634745     -0.726157      0.162699
  H       1.688130     -1.948780     -1.114426
  H       1.808428      1.418328      2.429935
  H      -0.340222      0.527632      1.474771
  C       4.291704     -1.323381     -0.445695
  H       4.939800     -1.702283      0.346588
  H       4.841056     -0.538192     -0.970096
  H       4.092792     -2.131094     -1.149064
  H       3.959571      0.548021      1.532389
  H      -1.854286     -2.278515     -0.401184
  O      -1.528773     -1.475186     -0.828467
  H      -0.415909     -1.118315     -0.285929
28
Coordinates from ORCA-job /home/rudenko/2025/kie/for_orca/ch2chch2no2_picoline/orca/ts_opt/ts_opt E -686.378845632420
  C      -2.536606      1.690158     -0.708611
  H      -1.837663      2.135689     -0.010200
  N      -3.387864      0.299297      1.140565
  O      -2.629186      0.872229      1.940972
  O      -4.251965     -0.503308      1.531808
  H      -3.370167      1.799997     -2.652358
  C      -3.204421      0.464144     -0.260092
  H      -4.116238      0.184648     -0.777417
  H      -2.357012     -0.548863     -0.536512
  C      -2.686963      2.222265     -1.923309
  H      -2.124615      3.097363     -2.222276
  C       1.787971     -1.207955     -0.330847
  C       3.024423     -0.785250      0.134955
  C       3.023768      0.179592      1.145435
  C       1.828072      0.676100      1.644050
  C       0.636696      0.200486      1.124264
  N       0.641644     -0.721424      0.157497
  H       1.695446     -1.951603     -1.111973
  H       1.814538      1.422173      2.425963
  H      -0.333694      0.539493      1.462497
  C       4.298706     -1.337762     -0.431320
  H       4.938043     -1.723936      0.364598
  H       4.857782     -0.555093     -0.949128
  H       4.099074     -2.141904     -1.138571
  H       3.965868      0.539918      1.540646
  H      -1.846020     -2.271745     -0.422344
  O      -1.521497     -1.464385     -0.842747
  H      -0.408118     -1.110323     -0.295548
28
Coordinates from ORCA-job /home/rudenko/2025/kie/for_orca/ch2chch2no2_picoline/orca/ts_opt/ts_opt E -686.378849086852
  C      -2.533676      1.688597     -0.707685
  H      -1.835407      2.133567     -0.008229
  N      -3.388456      0.298939      1.140757
  O      -2.630248      0.871639      1.941712
  O      -4.255990     -0.500211      1.531489
  H      -3.363858      1.798731     -2.652839
  C      -3.203673      0.463460     -0.259876
  H      -4.115499      0.185524     -0.778068
  H      -2.357781     -0.549880     -0.535235
  C      -2.681372      2.220465     -1.922803
  H      -2.117480      3.094782     -2.221163
  C       1.786839     -1.207540     -0.331585
  C       3.023211     -0.784217      0.133876
  C       3.022361      0.180410      1.144576
  C       1.826572      0.676180      1.643720
  C       0.635307      0.200034      1.124208
  N       0.640455     -0.721680      0.157298
  H       1.694418     -1.951006     -1.112894
  H       1.812890      1.422118      2.425751
  H      -0.335185      0.538398      1.462871
  C       4.297625     -1.335869     -0.432934
  H       4.936722     -1.723318      0.362567
  H       4.856881     -0.552414     -0.949334
  H       4.098167     -2.138921     -1.141464
  H       3.964395      0.541204      1.539505
  H      -1.846149     -2.272498     -0.418695
  O      -1.522226     -1.465733     -0.840686
  H      -0.408842     -1.110761     -0.294839
28
Coordinates from ORCA-job /home/rudenko/2025/kie/for_orca/ch2chch2no2_picoline/orca/ts_opt/ts_opt E -686.378850847783
  C      -2.533673      1.688166     -0.706752
  H      -1.836637      2.133142     -0.006092
  N      -3.391066      0.298592      1.140502
  O      -2.632535      0.869780      1.942202
  O      -4.259149     -0.500464      1.530201
  H      -3.360284      1.798112     -2.653430
  C      -3.204855      0.463291     -0.259915
  H      -4.116349      0.186162     -0.779104
  H      -2.359043     -0.550407     -0.534653
  C      -2.679041      2.219849     -1.922233
  H      -2.114489      3.094037     -2.219712
  C       1.786983     -1.207099     -0.332056
  C       3.023432     -0.783869      0.133266
  C       3.022784      0.180964      1.143778
  C       1.827116      0.676953      1.642989
  C       0.635755      0.200793      1.123722
  N       0.640726     -0.721024      0.156916
  H       1.694362     -1.950692     -1.113214
  H       1.813596      1.423012      2.424904
  H      -0.334666      0.539165      1.462569
  C       4.297742     -1.335936     -0.433360
  H       4.936077     -1.724638      0.362153
  H       4.857904     -0.552422     -0.948671
  H       4.098079     -2.138196     -1.142728
  H       3.964901      0.541704      1.538559
  H      -1.846110     -2.272589     -0.415953
  O      -1.522973     -1.466237     -0.839338
  H      -0.408586     -1.110150     -0.294548
