!  opt B3LYP def2-TZVP CPCM D3 
%pal nprocs 102 end
%cpcm epsilon 78.4 end 
*xyz 0 1 
C   0.85914182 3.32399644 1.90650762
C   1.36379171 2.0272775 1.83204295
C   0.49212993 0.944297 1.71700528
C   -0.88761012 1.16181017 1.67697339
C   -1.38819981 2.4569441 1.75516012
C   -0.5163977 3.5402458 1.86996216
H   1.54382063 4.16929696 1.98881087
H   2.44483123 1.8653226 1.86359632
H   -1.57362279 0.31759625 1.58214476
H   -0.91385866 4.55389592 1.9295408
C   1.06534547 -0.44571011 1.66229101
C   0.50849925 -1.34811912 2.75633096
H   0.97634869 -2.34360634 2.75321316
H   -0.57843261 -1.49252128 2.67850014
H   0.70344712 -0.91079864 3.74894361
N   0.75652078 -1.055521 0.32459067
O   1.69306766 -1.40096987 -0.37848113
O   -0.40445072 -1.18695399 -0.02656801
N   5.0825012 1.3619359 4.81177956
C   5.66533444 -0.0055668 4.80397681
C   6.81230846 -0.11980879 5.82095
C   7.88798483 0.92575759 5.50851506
C   7.25467723 2.3198513 5.56887128
C   6.10187075 2.41313076 4.55646049
H   5.5894434 3.39713244 4.64804013
H   6.50689742 2.35907449 3.52249485
H   8.0053521 3.10241325 5.35450581
H   6.88022098 2.52116349 6.59068881
H   7.23562921 -1.14088366 5.796181
H   6.42614254 0.03058107 6.84664981
H   6.03867031 -0.30031801 3.79738117
H   2.19760687 -0.40743765 1.75090742
H   4.35925204 1.42052942 4.08517747
H   4.84890376 -0.71511053 5.06821404
H   8.72848525 0.84662722 6.22084787
H   8.3217706 0.74310778 4.50677537
H   -2.46553109 2.62663664 1.72920255
H   4.73610574 0.11113553 2.38811129
H   4.36267026 -0.14234485 0.93678563
O   4.1811616 0.45069077 1.67952804
*
