!  opt B3LYP def2-TZVP CPCM D3 
%pal nprocs 102 end
%cpcm epsilon 78.4 end 
*xyz 0 1 
C   1.99166212 2.64948521 2.1920705
C   2.204827 1.28470641 2.00297386
C   1.14812813 0.44631417 1.64201395
C   -0.13085538 0.97489115 1.45381703
C   -0.30963471 2.33617237 1.6477683
C   0.71955357 3.19188644 2.01650875
H   2.82438194 3.29733246 2.47984229
H   3.20989243 0.87426445 2.14041779
H   -0.96253418 0.32759412 1.15933716
Cl   -1.8817407 2.98717368 1.4178484
H   0.55117238 4.26106133 2.16615722
C   1.40466645 -1.02877953 1.47778345
C   0.44365582 -1.88397369 2.29332204
H   0.64349267 -2.95918875 2.17693432
H   -0.61070777 -1.71504644 2.03479531
H   0.5567365 -1.65808785 3.36753338
N   1.25358148 -1.36816984 0.02073952
O   2.25192188 -1.69567241 -0.60054777
O   0.15225556 -1.2994123 -0.49873094
N   5.74974523 -0.00721541 3.22343402
C   6.24449034 -1.28586284 2.65587255
C   7.71659634 -1.21005867 2.21341074
C   7.90279482 -0.0674494 1.207502
C   7.38916293 1.2533885 1.79402083
C   5.92524793 1.09317807 2.24468541
H   2.46990561 -1.28597762 1.77588494
H   6.10791651 -2.07996576 3.42043072
H   5.59894006 -1.55633832 1.79113744
H   8.0306936 -2.17235162 1.76984132
H   8.37003818 -1.05405723 3.09152543
H   8.96867423 0.02659596 0.92986225
H   7.36373305 -0.29853584 0.26861665
H   7.47091076 2.06608218 1.0495284
H   8.01949818 1.56153076 2.64829916
H   5.5558039 2.0330283 2.70805601
H   5.28093063 0.88675932 1.36150234
H   6.26235262 0.21214302 4.08485364
H   2.60878223 -0.13246504 4.33239022
H   3.94725146 -0.56883844 3.71718987
O   3.05217194 -0.88962496 3.94839666
*
