39
Coordinates from ORCA-job /home/rudenko/2025/kie/for_orca/c6h5chno2ch3_piperazine/orca/ts_opt/ts_opt
  C   -3.35016894652431      1.87225037648424      0.21640506831182
  C   -2.32401343896166      1.00168718868978     -0.13833287832128
  C   -2.51381812995805      0.06743661635798     -1.14512275513607
  C   -3.73861865218658      0.01272309724904     -1.80498599831085
  C   -4.75555085410014      0.89685068807805     -1.48074642380826
  C   -4.56485229529441      1.82802336919972     -0.46867194169778
  H   -3.19658720264355      2.59094010558337      1.01924044747607
  H   -1.36775668230847      1.05715842947929      0.36602882329696
  H   -3.90669599455291     -0.72176394350523     -2.59663774520919
  H   -5.35742689009643      2.51903224027756     -0.20596778097422
  C   -1.39822183782612     -0.90397558556046     -1.46690141283809
  C   -1.57229774779193     -2.25195983195742     -0.79648432994321
  H   -0.75404612252328     -2.93050461390726     -1.03502704625037
  H   -2.51973295359718     -2.70657457669141     -1.08408366134289
  H   -1.58495292504675     -2.07633221353278      0.27973393268678
  N   -1.29204090420783     -1.04089628952644     -2.99080280813402
  O   -0.99980845728512     -0.02792837028701     -3.61528921228426
  O   -1.48634982408714     -2.11684402772315     -3.51658007146044
  N   2.74834807279891     -0.14330089849861      0.61743419922259
  C   2.65135727878984     -1.32661185638377      1.46591516881455
  C   2.32340594478954     -0.85733131634611      2.88085033235212
  N   3.37750017313625      0.05718934691970      3.33960063435527
  C   3.51354579431789      1.22418249154920      2.45917057190841
  C   3.80741982019217      0.76166122725035      1.04180392163600
  H   3.82916319555992      1.61695710495791      0.37265895822634
  H   4.80047622285812      0.28911241118558      1.01521199900279
  H   4.32646636062362      1.85162664458301      2.82740462436510
  H   2.59456906245647      1.83223819066890      2.43787070068323
  H   2.26643035818112     -1.70686345127902      3.57961486203428
  H   1.33110304323145     -0.37036633608608      2.85698967802819
  H   3.58932925541515     -1.90713188138665      1.49235130032216
  H   -0.44220209712914     -0.45296795677359     -1.20352190550727
  H   2.82691331485458     -0.36110680476999     -0.36322434951676
  H   1.86790188649872     -1.98003476268524      1.07206990765429
  H   3.16149949173993      0.37401053407550      4.28426204831402
  H   0.55363686616900      0.82529537309815     -2.83000831442231
  H   2.02617339181303      1.24454722468476     -2.69185187891937
  O   1.22153468148754      1.09922212228865     -2.18400674370377
  H   -5.69163225879225      0.86034993423946     -2.00636992091059
