!  NUMFREQ B3LYP def2-TZVP CPCM D3 
%pal nprocs 102 end
%cpcm epsilon 78.4 end 
*xyz 0 1 
C   2.00892575581721 2.65436626211559 2.09225576924066
C   2.10300469062848 1.26803429675288 2.08835098509058
C   1.01758769210209 0.48936481698598 1.69591861901639
C   -0.16762484785877 1.10567845407524 1.29657748062424
C   -0.240692709486 2.49023414719075 1.30205754930525
C   0.83240573061535 3.27904260394721 1.69715461441798
H   2.85463217538137 3.25388483659921 2.40291691865058
H   3.01762812559269 0.78248608952555 2.39462586949581
H   -1.02148034738032 0.5231874723446 0.9809084888955
Cl   -1.72873275108278 3.26473616660211 0.79883303146672
H   0.74747694171831 4.35681466575055 1.69575915885527
C   1.15037008230914 -1.01721893924532 1.70665104541796
C   0.0139702552437 -1.76351233082884 2.37605969845021
H   0.17466695684318 -2.83985356899741 2.31494151860467
H   -0.95077525138646 -1.52324606291415 1.93480982474692
H   -0.0004657000202 -1.47382488910968 3.4272144333917
N   1.30037587186095 -1.4634908933592 0.24543346529435
O   2.42734917782411 -1.45311018046194 -0.22319572122328
O   0.30048621790522 -1.77182540603444 -0.37916030099691
N   5.90416079251397 -0.30023493398637 3.27156960749838
C   6.54480668285055 -1.41637220037245 2.55513206638856
C   7.9284062142414 -1.06549221635483 2.00732225394248
C   7.8686643773436 0.19364489091422 1.13922859056607
C   7.20404610198946 1.34433537252917 1.89898111506982
C   5.84227648847716 0.91580290499433 2.44537426131492
H   2.10470680749329 -1.28479893547553 2.15334367205761 M = 2
H   6.60003521139757 -2.26916514669655 3.2343156325812
H   5.88071104817835 -1.69772755681664 1.73133568489479
H   8.32331353795875 -1.91057973710782 1.43684582796089
H   8.60984496298725 -0.89786371958023 2.84874135417113
H   8.87107404963362 0.48013231657727 0.81221573616428
H   7.28829855856157 -0.02157680548794 0.23480326081094
H   7.0809926349752 2.21634938026683 1.25081574776634
H   7.843311577087 1.65186368099062 2.7340793288168
H   5.39052060382807 1.71176653143712 3.04037509802014
H   5.16609165262507 0.70849753684596 1.61039485023631
H   6.44826546444569 -0.09820508412405 4.10683027426139
H   2.93353868919256 -0.63766000980931 4.48632111400579
H   4.33399165651794 -0.8941531719007 3.84321808739948
O   3.48993056107444 -1.34379469778182 4.13766914732795
*
