23
Coordinates from ORCA-job /home/rudenko/2025/kie/for_orca/ch32chno2_ch3coo/orca/ts_opt/ts_opt
  C   -1.63243601523504      0.50968540273328     -0.21374798523122
  H   -0.40992401704810      1.11807144249649     -0.16730537111498
  N   -1.57128286251817     -0.29528142680631      0.94472825214750
  O   -1.09844308813650     -1.45173370615441      0.87467419488420
  O   -1.90876659567037      0.18150612943434      2.05167934276043
  C   2.57478079596052     -0.97793700601281      0.07456989287334
  O   2.28921041603719      0.05746960349394      0.83398746092744
  O   2.16056139661067     -1.12000459696062     -1.06842038517269
  C   3.46830394701798     -1.98532156613928      0.75424962734997
  H   3.67040175265743     -2.82397924012518      0.09273176730573
  H   2.98832491081964     -2.34249529146698      1.66733079068148
  H   4.40662725395795     -1.50876776830612      1.04413672094598
  C   -2.63414731661395      1.64183873692509     -0.11988616964550
  H   -2.43287919042612      2.29309396529889      0.72895951607292
  H   -3.66318884918055      1.27481568446130     -0.02937969484051
  H   -2.56994397246369      2.24067604982796     -1.02932831376399
  C   -1.64154026367786     -0.27959150205254     -1.50575576816293
  H   -2.53815990698811     -0.90336964939268     -1.60113755032697
  H   -0.77009607006794     -0.92596537143469     -1.59201208463070
  H   -1.62967064343079      0.42011929252051     -2.34251333067683
  H   1.62378123212269      0.74840188910959      0.35970587982456
  O   0.70824484078514      1.69482079665643     -0.18567739455162
  H   0.61024224548798      2.43394813189377      0.42841060234440
