23
Coordinates from ORCA-job /home/rudenko/2025/kie/for_orca/ch32chno2_ch3coo/orca/ts_opt/ts_opt E -628.674181758541
  C      -1.602288      0.478980     -0.261528
  H      -0.377040      1.082967     -0.314644
  N      -1.412697     -0.406489      0.821989
  O      -0.996721     -1.567955      0.613199
  O      -1.577219      0.002445      1.993504
  C       2.590527     -0.947982      0.136608
  O       2.249303      0.110158      0.839398
  O       2.286309     -1.118838     -1.036504
  C       3.393690     -1.949840      0.927878
  H       3.722808     -2.765475      0.288826
  H       2.775273     -2.346479      1.736010
  H       4.255633     -1.462152      1.385497
  C      -2.570456      1.606828      0.032873
  H      -2.262471      2.194634      0.895833
  H      -3.586157      1.237977      0.218019
  H      -2.607141      2.269558     -0.832843
  C      -1.780598     -0.212749     -1.595494
  H      -2.702477     -0.805180     -1.633660
  H      -0.946271     -0.873012     -1.825724
  H      -1.837885      0.546229     -2.377053
  H       1.620660      0.786803      0.299765
  O       0.737551      1.657731     -0.401811
  H       0.627665      2.481843      0.089863
23
Coordinates from ORCA-job /home/rudenko/2025/kie/for_orca/ch32chno2_ch3coo/orca/ts_opt/ts_opt E -628.674095686267
  C      -1.606583      0.491085     -0.232426
  H      -0.385449      1.105435     -0.247038
  N      -1.470425     -0.338638      0.902051
  O      -1.033748     -1.504187      0.773835
  O      -1.703938      0.124655      2.041162
  C       2.592826     -0.938829      0.091779
  O       2.243805      0.076734      0.851269
  O       2.293096     -1.045640     -1.090037
  C       3.398867     -1.979087      0.828705
  H       3.734709     -2.755870      0.146221
  H       2.779976     -2.423667      1.611108
  H       4.256533     -1.513133      1.316052
  C      -2.599214      1.620984     -0.047842
  H      -2.344890      2.253450      0.800908
  H      -3.620501      1.250210      0.098710
  H      -2.593135      2.240415     -0.945777
  C      -1.704064     -0.266448     -1.538715
  H      -2.617036     -0.870746     -1.598711
  H      -0.852335     -0.927332     -1.689871
  H      -1.724455      0.453075     -2.358492
  H       1.613165      0.779107      0.348019
  O       0.727412      1.687691     -0.300411
  H       0.615385      2.480738      0.239500
23
Coordinates from ORCA-job /home/rudenko/2025/kie/for_orca/ch32chno2_ch3coo/orca/ts_opt/ts_opt E -628.673862217298
  C      -1.610536      0.478462     -0.244695
  H      -0.382679      1.071919     -0.297587
  N      -1.445410     -0.374483      0.868968
  O      -1.041165     -1.547687      0.708131
  O      -1.628649      0.074228      2.023102
  C       2.636423     -0.914617      0.111309
  O       2.212667      0.075105      0.867467
  O       2.443624     -0.986883     -1.095340
  C       3.395495     -1.964422      0.883270
  H       3.799925     -2.716249      0.209923
  H       2.720504     -2.441021      1.597550
  H       4.201465     -1.501355      1.454070
  C      -2.572299      1.623265      0.001941
  H      -2.272790      2.234496      0.851655
  H      -3.594430      1.269436      0.180973
  H      -2.587799      2.259205     -0.884220
  C      -1.774190     -0.248473     -1.561529
  H      -2.701113     -0.832966     -1.598656
  H      -0.942668     -0.922359     -1.761950
  H      -1.811558      0.489303     -2.364399
  H       1.597656      0.767479      0.335459
  O       0.734420      1.638524     -0.382881
  H       0.623108      2.469093      0.097438
23
Coordinates from ORCA-job /home/rudenko/2025/kie/for_orca/ch32chno2_ch3coo/orca/ts_opt/ts_opt E -628.674061504099
  C      -1.615676      0.493561     -0.230686
  H      -0.390441      1.099114     -0.243763
  N      -1.489587     -0.332012      0.908257
  O      -1.066561     -1.503312      0.787173
  O      -1.728578      0.136938      2.043862
  C       2.610941     -0.940429      0.088236
  O       2.235659      0.060152      0.854913
  O       2.341435     -1.029917     -1.102336
  C       3.418747     -1.979628      0.824650
  H       3.781204     -2.739384      0.136634
  H       2.791293     -2.447076      1.586622
  H       4.258475     -1.508195      1.337269
  C      -2.600644      1.631394     -0.054234
  H      -2.344301      2.265702      0.792597
  H      -3.625079      1.268744      0.090740
  H      -2.587255      2.246845     -0.954777
  C      -1.714588     -0.269221     -1.533937
  H      -2.631366     -0.867761     -1.593630
  H      -0.866879     -0.936373     -1.679659
  H      -1.728100      0.446700     -2.357017
  H       1.607768      0.762162      0.348989
  O       0.725692      1.675020     -0.296114
  H       0.617841      2.466976      0.246209
23
Coordinates from ORCA-job /home/rudenko/2025/kie/for_orca/ch32chno2_ch3coo/orca/ts_opt/ts_opt E -628.674072870827
  C      -1.646294      0.513027     -0.217888
  H      -0.414048      1.104405     -0.187278
  N      -1.582982     -0.283956      0.946873
  O      -1.150465     -1.455623      0.874467
  O      -1.860795      0.217293      2.059113
  C       2.632858     -0.968969      0.065021
  O       2.239132      0.008123      0.850932
  O       2.324879     -1.061593     -1.116144
  C       3.494648     -1.987786      0.768309
  H       3.862155     -2.727859      0.061947
  H       2.905801     -2.482784      1.543557
  H       4.332609     -1.492837      1.261342
  C      -2.628514      1.661894     -0.117698
  H      -2.404508      2.315097      0.724016
  H      -3.661424      1.310620     -0.009038
  H      -2.570835      2.255002     -1.031222
  C      -1.691587     -0.285366     -1.503381
  H      -2.606726     -0.883967     -1.584576
  H      -0.840391     -0.957786     -1.590798
  H      -1.668265      0.407059     -2.346030
  H       1.602428      0.712098      0.359724
  O       0.711153      1.666800     -0.206354
  H       0.621171      2.417105      0.395105
23
Coordinates from ORCA-job /home/rudenko/2025/kie/for_orca/ch32chno2_ch3coo/orca/ts_opt/ts_opt E -628.673978839327
  C      -1.642060      0.520909     -0.215166
  H      -0.415722      1.117879     -0.168383
  N      -1.587409     -0.271258      0.953705
  O      -1.161436     -1.446078      0.889924
  O      -1.924131      0.219090      2.054412
  C       2.597555     -0.993938      0.069747
  O       2.256616      0.012201      0.843751
  O       2.228371     -1.117452     -1.091038
  C       3.505760     -1.988024      0.749566
  H       3.833909     -2.747641      0.044498
  H       2.967644     -2.461648      1.573459
  H       4.369471     -1.475544      1.175932
  C      -2.634870      1.662389     -0.133380
  H      -2.427748      2.320464      0.708829
  H      -3.666546      1.303856     -0.038113
  H      -2.568356      2.252108     -1.048456
  C      -1.662156     -0.282969     -1.498113
  H      -2.568695     -0.893089     -1.587857
  H      -0.801590     -0.945148     -1.573389
  H      -1.637631      0.406748     -2.342809
  H       1.608371      0.713459      0.360346
  O       0.708740      1.680725     -0.175644
  H       0.621916      2.412962      0.448176
23
Coordinates from ORCA-job /home/rudenko/2025/kie/for_orca/ch32chno2_ch3coo/orca/ts_opt/ts_opt E -628.674140042671
  C      -1.606870      0.500033     -0.236195
  H      -0.389456      1.119798     -0.228408
  N      -1.480458     -0.337512      0.894076
  O      -1.031863     -1.498064      0.761867
  O      -1.742931      0.111010      2.032508
  C       2.554634     -0.973919      0.101385
  O       2.275860      0.087325      0.825852
  O       2.148087     -1.148917     -1.039866
  C       3.419659     -1.975901      0.824498
  H       3.691352     -2.793527      0.161514
  H       2.872076     -2.368956      1.683831
  H       4.318565     -1.488830      1.205321
  C      -2.610731      1.620741     -0.057640
  H      -2.371839      2.248538      0.799061
  H      -3.630874      1.241153      0.073572
  H      -2.598581      2.247196     -0.950517
  C      -1.679814     -0.250540     -1.548531
  H      -2.583605     -0.867032     -1.621656
  H      -0.817305     -0.898819     -1.692837
  H      -1.701517      0.473620     -2.364090
  H       1.626117      0.776559      0.327980
  O       0.722520      1.705302     -0.265639
  H       0.616974      2.470742      0.313915
23
Coordinates from ORCA-job /home/rudenko/2025/kie/for_orca/ch32chno2_ch3coo/orca/ts_opt/ts_opt E -628.674149359040
  C      -1.624835      0.505398     -0.229636
  H      -0.400535      1.113480     -0.208351
  N      -1.528212     -0.318119      0.913822
  O      -1.075172     -1.479491      0.807381
  O      -1.799100      0.151370      2.041699
  C       2.579628     -0.978490      0.089662
  O       2.272612      0.061622      0.833046
  O       2.199981     -1.129265     -1.064328
  C       3.453677     -1.980934      0.801349
  H       3.751635     -2.776319      0.122809
  H       2.901442     -2.406080      1.642269
  H       4.336792     -1.485838      1.207892
  C      -2.619975      1.638315     -0.083650
  H      -2.389256      2.275109      0.768643
  H      -3.646107      1.270966      0.034999
  H      -2.585868      2.252488     -0.984486
  C      -1.682740     -0.262606     -1.532678
  H      -2.589877     -0.873510     -1.611193
  H      -0.823185     -0.918928     -1.654409
  H      -1.686461      0.450375     -2.358268
  H       1.621462      0.752203      0.338837
  O       0.717170      1.692063     -0.235242
  H       0.616924      2.446191      0.359832
23
Coordinates from ORCA-job /home/rudenko/2025/kie/for_orca/ch32chno2_ch3coo/orca/ts_opt/ts_opt E -628.673744409640
  C      -1.648138      0.521428     -0.205656
  H      -0.422039      1.113288     -0.163940
  N      -1.598456     -0.256541      0.973228
  O      -1.176094     -1.433497      0.924405
  O      -1.946316      0.244544      2.065873
  C       2.658651     -0.955035      0.043417
  O       2.241196     -0.004116      0.849575
  O       2.346221     -1.032366     -1.137856
  C       3.500310     -1.997031      0.736776
  H       3.863721     -2.730592      0.021513
  H       2.899737     -2.497383      1.499674
  H       4.340689     -1.520792      1.243833
  C      -2.637491      1.667254     -0.142611
  H      -2.430286      2.336956      0.690233
  H      -3.670740      1.314099     -0.045222
  H      -2.565809      2.242862     -1.066321
  C      -1.666497     -0.299366     -1.477919
  H      -2.573013     -0.910318     -1.561325
  H      -0.805768     -0.962606     -1.544442
  H      -1.640349      0.379300     -2.331451
  H       1.600880      0.703125      0.363598
  O       0.705457      1.670100     -0.177433
  H       0.624134      2.406687      0.442049
23
Coordinates from ORCA-job /home/rudenko/2025/kie/for_orca/ch32chno2_ch3coo/orca/ts_opt/ts_opt E -628.673731000660
  C      -1.688516      0.536494     -0.193415
  H      -0.448574      1.097522     -0.149238
  N      -1.675343     -0.207755      1.007358
  O      -1.249280     -1.384326      1.004074
  O      -2.011728      0.338271      2.081619
  C       2.709432     -0.971938      0.028747
  O       2.161754     -0.121407      0.868868
  O       2.573243     -0.913496     -1.186603
  C       3.571969     -2.007263      0.706060
  H       4.079720     -2.622500     -0.032615
  H       2.943790     -2.637854      1.338135
  H       4.303857     -1.521747      1.354062
  C      -2.651471      1.705807     -0.179376
  H      -2.441314      2.394948      0.636788
  H      -3.694055      1.379394     -0.088033
  H      -2.551837      2.251609     -1.118367
  C      -1.704129     -0.320383     -1.441703
  H      -2.621891     -0.914641     -1.522070
  H      -0.856628     -1.003083     -1.476101
  H      -1.650351      0.332698     -2.313753
  H       1.558113      0.617737      0.381323
  O       0.698647      1.616121     -0.162297
  H       0.644594      2.355791      0.456538
23
Coordinates from ORCA-job /home/rudenko/2025/kie/for_orca/ch32chno2_ch3coo/orca/ts_opt/ts_opt E -628.673978072655
  C      -1.653481      0.519439     -0.214205
  H      -0.421957      1.105134     -0.184147
  N      -1.591987     -0.271247      0.954733
  O      -1.154853     -1.441955      0.890676
  O      -1.894583      0.229167      2.061021
  C       2.635222     -0.980231      0.063528
  O       2.224229     -0.014640      0.855757
  O       2.369288     -1.043405     -1.129849
  C       3.509511     -1.991725      0.761622
  H       3.904200     -2.711178      0.048536
  H       2.919507     -2.512836      1.518076
  H       4.329362     -1.488217      1.276888
  C      -2.633732      1.671032     -0.123772
  H      -2.409877      2.330534      0.712925
  H      -3.667678      1.323248     -0.014624
  H      -2.571883      2.255951     -1.042342
  C      -1.695553     -0.287757     -1.494186
  H      -2.608536     -0.889898     -1.571648
  H      -0.841919     -0.957795     -1.579292
  H      -1.674546      0.399527     -2.340990
  H       1.592840      0.693298      0.358823
  O       0.708383      1.657247     -0.206025
  H       0.628043      2.406307      0.398495
23
Coordinates from ORCA-job /home/rudenko/2025/kie/for_orca/ch32chno2_ch3coo/orca/ts_opt/ts_opt E -628.674133159983
  C      -1.613686      0.502574     -0.239560
  H      -0.393575      1.116753     -0.230388
  N      -1.488092     -0.338261      0.888200
  O      -1.032648     -1.495917      0.752778
  O      -1.748982      0.107177      2.028267
  C       2.555497     -0.985566      0.106251
  O       2.275955      0.081415      0.821833
  O       2.151137     -1.168089     -1.034734
  C       3.437203     -1.972441      0.829947
  H       3.713684     -2.791581      0.170872
  H       2.900316     -2.365440      1.695846
  H       4.333387     -1.472597      1.200973
  C      -2.611781      1.627731     -0.056410
  H      -2.366827      2.253271      0.800248
  H      -3.633217      1.252913      0.078113
  H      -2.599687      2.255202     -0.948550
  C      -1.692553     -0.246759     -1.552293
  H      -2.598088     -0.861048     -1.622208
  H      -0.832255     -0.896945     -1.699783
  H      -1.715517      0.478023     -2.367235
  H       1.623363      0.764231      0.317870
  O       0.719341      1.699272     -0.265741
  H       0.617025      2.456080      0.325701
23
Coordinates from ORCA-job /home/rudenko/2025/kie/for_orca/ch32chno2_ch3coo/orca/ts_opt/ts_opt E -628.674145061640
  C      -1.634679      0.509729     -0.225071
  H      -0.407975      1.110864     -0.203687
  N      -1.545016     -0.304780      0.925431
  O      -1.092868     -1.467606      0.830594
  O      -1.829122      0.171234      2.047296
  C       2.607364     -0.974253      0.078059
  O       2.257569      0.039786      0.838519
  O       2.259416     -1.104611     -1.088423
  C       3.471050     -1.983712      0.792336
  H       3.796693     -2.760795      0.105350
  H       2.899939     -2.432933      1.607778
  H       4.337051     -1.488955      1.234511
  C      -2.625332      1.648050     -0.092193
  H      -2.394015      2.291545      0.754937
  H      -3.653456      1.286579      0.026967
  H      -2.585632      2.253590     -0.998592
  C      -1.690180     -0.269160     -1.521915
  H      -2.597705     -0.879790     -1.597240
  H      -0.830911     -0.927318     -1.636516
  H      -1.691361      0.436884     -2.353477
  H       1.612310      0.732951      0.339407
  O       0.714373      1.680435     -0.231718
  H       0.622486      2.432268      0.367647
23
Coordinates from ORCA-job /home/rudenko/2025/kie/for_orca/ch32chno2_ch3coo/orca/ts_opt/ts_opt E -628.674157874839
  C      -1.629714      0.509041     -0.226843
  H      -0.405300      1.113993     -0.204441
  N      -1.535868     -0.310224      0.919945
  O      -1.078989     -1.470717      0.819422
  O      -1.824003      0.158467      2.043886
  C       2.590149     -0.979165      0.083880
  O       2.267939      0.052314      0.832962
  O       2.217310     -1.125453     -1.072981
  C       3.463600     -1.981903      0.795578
  H       3.767664     -2.773413      0.115225
  H       2.908884     -2.412436      1.632077
  H       4.343165     -1.485593      1.208387
  C      -2.624441      1.643141     -0.088394
  H      -2.394524      2.284251      0.760881
  H      -3.651115      1.277509      0.030559
  H      -2.587963      2.252267     -0.992560
  C      -1.683332     -0.264708     -1.526828
  H      -2.588068     -0.879314     -1.603417
  H      -0.821115     -0.918272     -1.645541
  H      -1.689016      0.444773     -2.355406
  H       1.617447      0.741694      0.335499
  O       0.715438      1.687139     -0.231975
  H       0.621853      2.436610      0.370086
23
Coordinates from ORCA-job /home/rudenko/2025/kie/for_orca/ch32chno2_ch3coo/orca/ts_opt/ts_opt E -628.674150306991
  C      -1.628979      0.510390     -0.224424
  H      -0.406679      1.117009     -0.195664
  N      -1.541766     -0.306557      0.924633
  O      -1.076895     -1.464326      0.830342
  O      -1.843137      0.162326      2.044950
  C       2.582633     -0.980885      0.082657
  O       2.277725      0.057242      0.829881
  O       2.188110     -1.133653     -1.066187
  C       3.462809     -1.983366      0.786318
  H       3.748545     -2.782809      0.107304
  H       2.921665     -2.402965      1.637144
  H       4.353382     -1.489332      1.177708
  C      -2.627678      1.642013     -0.095669
  H      -2.405256      2.285811      0.753570
  H      -3.654223      1.274122      0.017100
  H      -2.586364      2.248927     -1.001109
  C      -1.670612     -0.266289     -1.523235
  H      -2.571513     -0.885962     -1.603911
  H      -0.804112     -0.915252     -1.635805
  H      -1.675204      0.441537     -2.353205
  H       1.621272      0.745048      0.337693
  O       0.714545      1.691511     -0.219540
  H       0.621733      2.435460      0.389449
23
Coordinates from ORCA-job /home/rudenko/2025/kie/for_orca/ch32chno2_ch3coo/orca/ts_opt/ts_opt E -628.674141807366
  C      -1.637609      0.515494     -0.217420
  H      -0.414238      1.116503     -0.181804
  N      -1.566735     -0.288251      0.942202
  O      -1.101786     -1.447405      0.867448
  O      -1.885092      0.192932      2.052468
  C       2.597866     -0.980881      0.071994
  O       2.265978      0.034562      0.838683
  O       2.228475     -1.108814     -1.088182
  C       3.479364     -1.988619      0.766368
  H       3.788148     -2.766852      0.072957
  H       2.929233     -2.436513      1.596712
  H       4.356045     -1.492601      1.185758
  C      -2.634335      1.651478     -0.114182
  H      -2.420062      2.304536      0.730050
  H      -3.663349      1.288141     -0.009542
  H      -2.579982      2.247376     -1.026198
  C      -1.666048     -0.276522     -1.507445
  H      -2.567258     -0.895295     -1.591065
  H      -0.799662     -0.928473     -1.602644
  H      -1.659744      0.421518     -2.345643
  H       1.614003      0.729275      0.349540
  O       0.711876      1.683556     -0.201563
  H       0.624912      2.424858      0.411510
23
Coordinates from ORCA-job /home/rudenko/2025/kie/for_orca/ch32chno2_ch3coo/orca/ts_opt/ts_opt E -628.674086154215
  C      -1.663712      0.536131     -0.196767
  H      -0.448626      1.116651     -0.116806
  N      -1.666528     -0.239932      0.985965
  O      -1.157567     -1.382115      0.979225
  O      -2.097271      0.252933      2.051084
  C       2.608370     -1.002992      0.054613
  O       2.300578      0.005817      0.840271
  O       2.182492     -1.131524     -1.086114
  C       3.539109     -2.000261      0.697480
  H       3.801063     -2.785782     -0.006860
  H       3.053044     -2.439563      1.571215
  H       4.441885     -1.495914      1.046013
  C      -2.664191      1.672548     -0.176683
  H      -2.494228      2.346044      0.661653
  H      -3.698162      1.313413     -0.119236
  H      -2.557127      2.244044     -1.099369
  C      -1.619648     -0.288056     -1.467995
  H      -2.504585     -0.925991     -1.574639
  H      -0.737655     -0.923841     -1.511687
  H      -1.589998      0.390380     -2.321565
  H       1.622312      0.697674      0.376425
  O       0.705423      1.663523     -0.117364
  H       0.645023      2.376812      0.531141
23
Coordinates from ORCA-job /home/rudenko/2025/kie/for_orca/ch32chno2_ch3coo/orca/ts_opt/ts_opt E -628.674039662524
  C      -1.694277      0.556984     -0.189421
  H      -0.496648      1.098587     -0.069663
  N      -1.765538     -0.220648      0.995632
  O      -1.226639     -1.346869      1.026182
  O      -2.287647      0.259341      2.022160
  C       2.620322     -1.042416      0.064197
  O       2.355409     -0.007379      0.830771
  O       2.109584     -1.221962     -1.034521
  C       3.620766     -1.996708      0.666410
  H       3.805038     -2.830027     -0.006876
  H       3.242842     -2.371984      1.619629
  H       4.555376     -1.471285      0.871281
  C      -2.686176      1.700351     -0.208840
  H      -2.542734      2.371336      0.636577
  H      -3.725067      1.352507     -0.193167
  H      -2.534282      2.269705     -1.126513
  C      -1.606054     -0.272000     -1.457659
  H      -2.475723     -0.927365     -1.578754
  H      -0.709426     -0.888163     -1.483638
  H      -1.573229      0.405248     -2.311740
  H       1.636014      0.660154      0.382066
  O       0.702784      1.615879     -0.064350
  H       0.675306      2.306716      0.610238
23
Coordinates from ORCA-job /home/rudenko/2025/kie/for_orca/ch32chno2_ch3coo/orca/ts_opt/ts_opt E -628.674152080147
  C      -1.653416      0.531405     -0.200546
  H      -0.444358      1.113193     -0.120318
  N      -1.650749     -0.258191      0.974335
  O      -1.151388     -1.403968      0.949307
  O      -2.071005      0.224290      2.047894
  C       2.590112     -1.000287      0.062980
  O       2.323602      0.035324      0.828205
  O       2.130179     -1.152085     -1.061681
  C       3.522145     -1.995733      0.707368
  H       3.743231     -2.810065      0.021984
  H       3.058222     -2.394621      1.611931
  H       4.446775     -1.499661      1.007114
  C      -2.656161      1.665796     -0.166939
  H      -2.485057      2.332396      0.676680
  H      -3.689093      1.303876     -0.109170
  H      -2.553843      2.246020     -1.084891
  C      -1.615424     -0.282181     -1.478491
  H      -2.499227     -0.921816     -1.584434
  H      -0.731431     -0.914682     -1.532691
  H      -1.593366      0.403346     -2.326512
  H       1.633665      0.719734      0.370808
  O       0.708176      1.673136     -0.121159
  H       0.638412      2.384775      0.528227
23
Coordinates from ORCA-job /home/rudenko/2025/kie/for_orca/ch32chno2_ch3coo/orca/ts_opt/ts_opt E -628.674172062777
  C      -1.630746      0.518566     -0.207139
  H      -0.422462      1.119714     -0.146158
  N      -1.591377     -0.275562      0.962505
  O      -1.106694     -1.427236      0.914807
  O      -1.955951      0.210782      2.055273
  C       2.576091     -0.977507      0.061310
  O       2.305237      0.056596      0.826902
  O       2.145624     -1.114795     -1.076605
  C       3.468100     -1.995207      0.727677
  H       3.706195     -2.802526      0.039668
  H       2.960686     -2.400720      1.605633
  H       4.385922     -1.517109      1.073610
  C      -2.639812      1.646326     -0.144557
  H      -2.455970      2.309320      0.699227
  H      -3.668443      1.275547     -0.066979
  H      -2.562486      2.233317     -1.060533
  C      -1.618335     -0.287538     -1.489634
  H      -2.507644     -0.921335     -1.585551
  H      -0.739495     -0.925641     -1.560032
  H      -1.605311      0.402205     -2.334553
  H       1.629720      0.750319      0.365354
  O       0.709690      1.701554     -0.149069
  H       0.617460      2.420929      0.488844
23
Coordinates from ORCA-job /home/rudenko/2025/kie/for_orca/ch32chno2_ch3coo/orca/ts_opt/ts_opt E -628.672123959099
  C      -1.661618      0.546152     -0.189674
  H      -0.463591      1.123825     -0.114115
  N      -1.696258     -0.254468      0.998394
  O      -1.184542     -1.378579      0.942021
  O      -2.138329      0.209418      2.050241
  C       2.577845     -0.990231      0.098622
  O       2.317906      0.040091      0.861660
  O       2.084838     -1.139139     -1.019928
  C       3.523291     -2.000224      0.689609
  H       3.704087     -2.799119     -0.025365
  H       3.125319     -2.411697      1.617732
  H       4.465210     -1.499357      0.934317
  C      -2.666836      1.667075     -0.176441
  H      -2.488285      2.320220      0.680545
  H      -3.705903      1.334572     -0.131347
  H      -2.518387      2.225511     -1.099100
  C      -1.580938     -0.295694     -1.469030
  H      -2.456736     -0.938339     -1.554667
  H      -0.684336     -0.919752     -1.532493
  H      -1.559059      0.392203     -2.310847
  H       1.614454      0.716413      0.372785
  O       0.710679      1.661670     -0.129824
  H       0.681190      2.389450      0.506907
23
Coordinates from ORCA-job /home/rudenko/2025/kie/for_orca/ch32chno2_ch3coo/orca/ts_opt/ts_opt E -628.672434560568
  C      -1.615051      0.544396     -0.176843
  H      -0.434764      1.207041     -0.104448
  N      -1.579519     -0.188512      1.033312
  O      -0.992105     -1.285621      1.033774
  O      -2.003498      0.315634      2.083265
  C       2.490149     -0.983753      0.050495
  O       2.207209     -0.001591      0.866394
  O       2.054998     -1.068697     -1.095550
  C       3.398353     -2.029096      0.634749
  H       3.644237     -2.766835     -0.124700
  H       2.919823     -2.510137      1.489536
  H       4.311500     -1.550354      0.998114
  C      -2.687231      1.604110     -0.208145
  H      -2.569962      2.294907      0.628372
  H      -3.700413      1.194370     -0.166279
  H      -2.571188      2.146172     -1.144614
  C      -1.480837     -0.321838     -1.426732
  H      -2.332637     -0.996820     -1.526652
  H      -0.562602     -0.921205     -1.444824
  H      -1.457825      0.341651     -2.289075
  H       1.579487      0.744737      0.417888
  O       0.709294      1.754250     -0.084673
  H       0.672583      2.477190      0.556635
23
Coordinates from ORCA-job /home/rudenko/2025/kie/for_orca/ch32chno2_ch3coo/orca/ts_opt/ts_opt E -628.671881156215
  C      -1.589180      0.545207     -0.157887
  H      -0.414077      1.268011     -0.093295
  N      -1.528194     -0.124027      1.072263
  O      -0.939278     -1.225020      1.124118
  O      -1.950644      0.420149      2.109131
  C       2.448025     -0.980059      0.004504
  O       2.133692     -0.039057      0.856202
  O       2.064235     -1.014519     -1.160357
  C       3.333140     -2.049056      0.582989
  H       3.651824     -2.724435     -0.206672
  H       2.794482     -2.594906      1.359873
  H       4.205382     -1.587170      1.051422
  C      -2.701843      1.561925     -0.239660
  H      -2.640434      2.276827      0.581557
  H      -3.695031      1.102534     -0.213230
  H      -2.590554      2.087279     -1.186478
  C      -1.410657     -0.344023     -1.379699
  H      -2.256766     -1.025015     -1.500090
  H      -0.492203     -0.939473     -1.348867
  H      -1.357541      0.299019     -2.256910
  H       1.562148      0.749744      0.447088
  O       0.703694      1.809110     -0.046198
  H       0.669781      2.526955      0.600194
23
Coordinates from ORCA-job /home/rudenko/2025/kie/for_orca/ch32chno2_ch3coo/orca/ts_opt/ts_opt E -628.671932598211
  C      -1.594289      0.541317     -0.140754
  H      -0.398468      1.296644     -0.081272
  N      -1.535075     -0.074687      1.105664
  O      -0.975379     -1.192270      1.206570
  O      -1.932232      0.523851      2.129332
  C       2.471088     -0.969614     -0.038392
  O       2.103058     -0.077010      0.844733
  O       2.147335     -0.950223     -1.219580
  C       3.330252     -2.062212      0.539000
  H       3.739213     -2.667392     -0.265942
  H       2.730532     -2.677057      1.213086
  H       4.141060     -1.625737      1.125552
  C      -2.708481      1.554282     -0.273715
  H      -2.678945      2.287752      0.531512
  H      -3.696743      1.081630     -0.264572
  H      -2.582176      2.062753     -1.228439
  C      -1.397253     -0.373990     -1.334222
  H      -2.256909     -1.035781     -1.477072
  H      -0.498789     -0.990888     -1.253812
  H      -1.294061      0.246597     -2.223888
  H       1.561947      0.733325      0.470208
  O       0.683406      1.829718     -0.009296
  H       0.640910      2.538991      0.645300
23
Coordinates from ORCA-job /home/rudenko/2025/kie/for_orca/ch32chno2_ch3coo/orca/ts_opt/ts_opt E -628.673753965818
  C      -1.622954      0.525450     -0.165686
  H      -0.398393      1.218425     -0.098389
  N      -1.582176     -0.156960      1.055643
  O      -1.095420     -1.312373      1.111603
  O      -1.963011      0.411851      2.106760
  C       2.545905     -0.967967     -0.007731
  O       2.229256     -0.013288      0.836071
  O       2.174168     -1.007974     -1.172500
  C       3.416497     -2.035507      0.606703
  H       3.756742     -2.727667     -0.159325
  H       2.842316     -2.572395      1.364812
  H       4.273375     -1.580725      1.105717
  C      -2.682677      1.606497     -0.234942
  H      -2.593250      2.317794      0.583923
  H      -3.694625      1.184678     -0.209200
  H      -2.567084      2.145775     -1.175823
  C      -1.510472     -0.352385     -1.391863
  H      -2.394483     -0.987989     -1.523608
  H      -0.632163     -0.993338     -1.358052
  H      -1.425675      0.288695     -2.270612
  H       1.620455      0.746169      0.434792
  O       0.690529      1.779310     -0.046914
  H       0.613139      2.483923      0.608623
23
Coordinates from ORCA-job /home/rudenko/2025/kie/for_orca/ch32chno2_ch3coo/orca/ts_opt/ts_opt E -628.674256185023
  C      -1.614404      0.505991     -0.193054
  H      -0.381656      1.165252     -0.127765
  N      -1.559224     -0.239849      0.993760
  O      -1.075043     -1.397484      0.988894
  O      -1.899172      0.290908      2.079970
  C       2.547319     -0.955239      0.027716
  O       2.292980      0.062280      0.823969
  O       2.112571     -1.056430     -1.109712
  C       3.415603     -2.005069      0.675736
  H       3.673700     -2.781806     -0.039716
  H       2.870680     -2.447672      1.512670
  H       4.321623     -1.550905      1.078444
  C      -2.639878      1.621770     -0.179316
  H      -2.496610      2.307596      0.653689
  H      -3.661783      1.227307     -0.123750
  H      -2.553974      2.194179     -1.103823
  C      -1.568255     -0.327744     -1.452255
  H      -2.457315     -0.960648     -1.564733
  H      -0.690392     -0.971269     -1.477264
  H      -1.527056      0.338611     -2.315126
  H       1.639553      0.774693      0.398019
  O       0.685118      1.750988     -0.098612
  H       0.565613      2.454541      0.552259
23
Coordinates from ORCA-job /home/rudenko/2025/kie/for_orca/ch32chno2_ch3coo/orca/ts_opt/ts_opt E -628.673588597949
  C      -1.641635      0.508951     -0.208292
  H      -0.403829      1.108434     -0.138727
  N      -1.619501     -0.285134      0.974964
  O      -1.143121     -1.436012      0.925922
  O      -1.977919      0.214077      2.056544
  C       2.586117     -0.955202      0.073634
  O       2.304840      0.061673      0.859183
  O       2.151349     -1.072338     -1.067393
  C       3.482321     -1.984619      0.709284
  H       3.722207     -2.772059     -0.000321
  H       2.988560     -2.422280      1.579151
  H       4.397211     -1.504208      1.062964
  C      -2.618854      1.661806     -0.157115
  H      -2.403425      2.331572      0.675508
  H      -3.661290      1.336787     -0.064287
  H      -2.522845      2.224755     -1.086372
  C      -1.631225     -0.319656     -1.483891
  H      -2.529159     -0.942082     -1.566393
  H      -0.759584     -0.970264     -1.546948
  H      -1.608412      0.363349     -2.334271
  H       1.621144      0.743364      0.377966
  O       0.687918      1.695822     -0.139857
  H       0.579132      2.413262      0.498745
23
Coordinates from ORCA-job /home/rudenko/2025/kie/for_orca/ch32chno2_ch3coo/orca/ts_opt/ts_opt E -628.672776037504
  C      -1.636090      0.514388     -0.223434
  H      -0.412859      1.085195     -0.152788
  N      -1.617535     -0.315992      0.953116
  O      -1.120203     -1.451724      0.875791
  O      -1.998561      0.151881      2.033056
  C       2.569845     -0.966664      0.111707
  O       2.267833      0.049590      0.885983
  O       2.129406     -1.108171     -1.027395
  C       3.497795     -1.970623      0.740057
  H       3.710294     -2.778447      0.045025
  H       3.055887     -2.386947      1.647234
  H       4.423359     -1.469124      1.033507
  C      -2.607248      1.668098     -0.131916
  H      -2.343204      2.334071      0.690322
  H      -3.650207      1.364281      0.010297
  H      -2.541006      2.222884     -1.068717
  C      -1.652869     -0.297166     -1.513709
  H      -2.540952     -0.935599     -1.568468
  H      -0.771586     -0.927804     -1.620694
  H      -1.672945      0.405075     -2.348257
  H       1.589145      0.725669      0.363524
  O       0.705863      1.675441     -0.176858
  H       0.615839      2.411688      0.442616
23
Coordinates from ORCA-job /home/rudenko/2025/kie/for_orca/ch32chno2_ch3coo/orca/ts_opt/ts_opt E -628.673587459798
  C      -1.640560      0.527284     -0.231077
  H      -0.442083      1.060429     -0.159860
  N      -1.639816     -0.322346      0.938705
  O      -1.149672     -1.460228      0.852744
  O      -2.041802      0.129802      2.017561
  C       2.585221     -0.989926      0.122951
  O       2.217932      0.000604      0.898969
  O       2.197829     -1.129206     -1.036038
  C       3.539460     -1.962652      0.764495
  H       3.769229     -2.774620      0.079680
  H       3.114673     -2.374667      1.681841
  H       4.454315     -1.434388      1.043712
  C      -2.610580      1.681980     -0.117578
  H      -2.320767      2.353280      0.691571
  H      -3.648584      1.380916      0.060108
  H      -2.573616      2.231060     -1.059441
  C      -1.683725     -0.273542     -1.525702
  H      -2.567662     -0.918682     -1.565517
  H      -0.799694     -0.894865     -1.657420
  H      -1.727356      0.436170     -2.352683
  H       1.560021      0.692197      0.352773
  O       0.733049      1.644082     -0.200686
  H       0.674188      2.397318      0.400891
23
Coordinates from ORCA-job /home/rudenko/2025/kie/for_orca/ch32chno2_ch3coo/orca/ts_opt/ts_opt E -628.673866191841
  C      -1.628174      0.511270     -0.224633
  H      -0.401595      1.095885     -0.170502
  N      -1.582336     -0.301436      0.944761
  O      -1.111876     -1.455788      0.875066
  O      -1.936094      0.176960      2.040735
  C       2.583578     -0.966494      0.087104
  O       2.227831      0.022204      0.876523
  O       2.229045     -1.068217     -1.081959
  C       3.481171     -1.977891      0.753092
  H       3.746377     -2.769494      0.056959
  H       2.973373     -2.412025      1.617040
  H       4.382173     -1.484152      1.121758
  C      -2.610479      1.658056     -0.121966
  H      -2.350064      2.338710      0.687877
  H      -3.641726      1.324022      0.040554
  H      -2.582407      2.215400     -1.059343
  C      -1.667442     -0.293938     -1.508824
  H      -2.555852     -0.933669     -1.563038
  H      -0.787886     -0.925508     -1.618908
  H      -1.696270      0.401256     -2.348895
  H       1.585723      0.726637      0.369463
  O       0.720382      1.686542     -0.189666
  H       0.622548      2.431670      0.416803
23
Coordinates from ORCA-job /home/rudenko/2025/kie/for_orca/ch32chno2_ch3coo/orca/ts_opt/ts_opt E -628.674048576133
  C      -1.632199      0.515602     -0.220222
  H      -0.411811      1.103811     -0.168795
  N      -1.584914     -0.287559      0.948318
  O      -1.116726     -1.444372      0.885386
  O      -1.928202      0.197941      2.046593
  C       2.592803     -0.973513      0.076673
  O       2.222232      0.007144      0.869038
  O       2.250265     -1.071567     -1.095393
  C       3.486796     -1.984029      0.750170
  H       3.761022     -2.773097      0.054559
  H       2.970424     -2.417512      1.609123
  H       4.384276     -1.489781      1.126438
  C      -2.622822      1.657205     -0.125936
  H      -2.377676      2.339235      0.687231
  H      -3.651049      1.309442      0.026023
  H      -2.592667      2.217906     -1.061108
  C      -1.662442     -0.291052     -1.502595
  H      -2.552037     -0.928277     -1.565538
  H      -0.784024     -0.925867     -1.603862
  H      -1.681231      0.400425     -2.345879
  H       1.585507      0.720011      0.372348
  O       0.717724      1.686216     -0.184839
  H       0.626750      2.431691      0.422268
23
Coordinates from ORCA-job /home/rudenko/2025/kie/for_orca/ch32chno2_ch3coo/orca/ts_opt/ts_opt E -628.674115178556
  C      -1.634077      0.511646     -0.215012
  H      -0.408454      1.113032     -0.165971
  N      -1.581252     -0.284036      0.948724
  O      -1.123334     -1.447001      0.887773
  O      -1.912860      0.205546      2.051994
  C       2.587096     -0.976220      0.069381
  O       2.254715      0.028296      0.850786
  O       2.213089     -1.090787     -1.090230
  C       3.479937     -1.985671      0.746524
  H       3.734595     -2.790092      0.061103
  H       2.968974     -2.394550      1.620421
  H       4.389986     -1.497395      1.099581
  C      -2.627716      1.651814     -0.127453
  H      -2.403778      2.325664      0.698076
  H      -3.655717      1.292707     -0.001422
  H      -2.583518      2.226196     -1.053591
  C      -1.650196     -0.289827     -1.499697
  H      -2.544011     -0.919251     -1.581774
  H      -0.776480     -0.933326     -1.587904
  H      -1.648768      0.401066     -2.343702
  H       1.606567      0.731457      0.371746
  O       0.707577      1.691032     -0.176798
  H       0.607623      2.429698      0.437446
23
Coordinates from ORCA-job /home/rudenko/2025/kie/for_orca/ch32chno2_ch3coo/orca/ts_opt/ts_opt E -628.674133607011
  C      -1.637851      0.514353     -0.213023
  H      -0.416097      1.114677     -0.162785
  N      -1.587704     -0.283436      0.951414
  O      -1.123614     -1.443736      0.890407
  O      -1.925414      0.203600      2.053330
  C       2.586734     -0.981240      0.071044
  O       2.262097      0.028454      0.848426
  O       2.200579     -1.104234     -1.084124
  C       3.486025     -1.986868      0.745361
  H       3.726125     -2.799824      0.064782
  H       2.989942     -2.382921      1.633519
  H       4.404142     -1.497469      1.075560
  C      -2.634881      1.652014     -0.129737
  H      -2.420213      2.320405      0.702615
  H      -3.663604      1.290884     -0.016817
  H      -2.580734      2.231411     -1.052224
  C      -1.646415     -0.285625     -1.499124
  H      -2.540950     -0.913172     -1.587190
  H      -0.773247     -0.930131     -1.583219
  H      -1.638100      0.407244     -2.341551
  H       1.609027      0.729922      0.369851
  O       0.708469      1.688382     -0.175767
  H       0.615684      2.427309      0.439251
23
Coordinates from ORCA-job /home/rudenko/2025/kie/for_orca/ch32chno2_ch3coo/orca/ts_opt/ts_opt E -628.674141581299
  C      -1.634301      0.510993     -0.212804
  H      -0.412909      1.118982     -0.164215
  N      -1.575494     -0.292639      0.946645
  O      -1.101467     -1.448806      0.879053
  O      -1.915510      0.185778      2.052045
  C       2.572817     -0.980926      0.074575
  O       2.290470      0.055608      0.833808
  O       2.150894     -1.125854     -1.065287
  C       3.472303     -1.985333      0.750571
  H       3.672327     -2.824653      0.089297
  H       2.998472     -2.341798      1.667144
  H       4.411339     -1.506249      1.033890
  C      -2.636416      1.643157     -0.123315
  H      -2.437406      2.295714      0.725123
  H      -3.665514      1.275809     -0.034714
  H      -2.569737      2.240586     -1.033387
  C      -1.637952     -0.279318     -1.504158
  H      -2.534460     -0.902783     -1.603071
  H      -0.766677     -0.926442     -1.586209
  H      -1.621697      0.419640     -2.341457
  H       1.623788      0.745534      0.360689
  O       0.706809      1.693245     -0.180849
  H       0.610321      2.429754      0.436629
23
Coordinates from ORCA-job /home/rudenko/2025/kie/for_orca/ch32chno2_ch3coo/orca/ts_opt/ts_opt E -628.674143644330
  C      -1.633684      0.510177     -0.213548
  H      -0.411012      1.117932     -0.166101
  N      -1.574075     -0.294007      0.945485
  O      -1.101964     -1.450854      0.876771
  O      -1.912409      0.183886      2.051716
  C       2.575448     -0.979060      0.074440
  O       2.289384      0.055745      0.834594
  O       2.159950     -1.121196     -1.068064
  C       3.471199     -1.985356      0.752739
  H       3.674273     -2.823266      0.090568
  H       2.992372     -2.343938      1.665886
  H       4.408894     -1.507406      1.042318
  C      -2.634834      1.642975     -0.121484
  H      -2.433426      2.295404      0.726445
  H      -3.664016      1.276480     -0.030539
  H      -2.570153      2.240506     -1.031729
  C      -1.641372     -0.279818     -1.505090
  H      -2.538112     -0.903292     -1.601430
  H      -0.770174     -0.926734     -1.589779
  H      -1.627925      0.419328     -2.342297
  H       1.623748      0.746599      0.360553
  O       0.707810      1.693952     -0.183479
  H       0.610078      2.431944      0.432026
23
Coordinates from ORCA-job /home/rudenko/2025/kie/for_orca/ch32chno2_ch3coo/orca/ts_opt/ts_opt E -628.674143827537
  C      -1.632436      0.509685     -0.213748
  H      -0.409924      1.118071     -0.167305
  N      -1.571283     -0.295281      0.944728
  O      -1.098443     -1.451734      0.874674
  O      -1.908767      0.181506      2.051679
  C       2.574781     -0.977937      0.074570
  O       2.289210      0.057470      0.833987
  O       2.160561     -1.120005     -1.068420
  C       3.468304     -1.985322      0.754250
  H       3.670402     -2.823979      0.092732
  H       2.988325     -2.342495      1.667331
  H       4.406627     -1.508768      1.044137
  C      -2.634147      1.641839     -0.119886
  H      -2.432879      2.293094      0.728960
  H      -3.663189      1.274816     -0.029380
  H      -2.569944      2.240676     -1.029328
  C      -1.641540     -0.279592     -1.505756
  H      -2.538160     -0.903370     -1.601138
  H      -0.770096     -0.925965     -1.592012
  H      -1.629671      0.420119     -2.342513
  H       1.623781      0.748402      0.359706
  O       0.708245      1.694821     -0.185677
  H       0.610242      2.433948      0.428411
