29
Coordinates from ORCA-job /home/rudenko/2025/kie/for_orca/m,m-o2n2c6h4chno2ch3_oh/orca/ts_opt/ts_opt
  C   -2.12864899932336      0.58943013746296     -0.37343513699254
  C   -0.87377415101834      0.53975006677291      0.21484660780361
  C   0.06186283540699     -0.38428338864745     -0.24132773909896
  C   -0.28159784864313     -1.23986505460084     -1.28386113271020
  C   -1.54789493478490     -1.15532402187928     -1.84517792494502
  C   -2.49902793907589     -0.24985416059573     -1.40877714309078
  H   -0.61856926723972      1.20465844740776      1.02670858294998
  H   0.41871169802498     -1.96797161080721     -1.66418704271810
  H   -3.47882515716819     -0.20141064938028     -1.85421671985902
  N   -1.90253845289665     -2.06594227540043     -2.94547931356433
  O   -3.02794356394497     -1.98584369825599     -3.41516339805497
  O   -1.05385384376980     -2.85522261014186     -3.33242685869627
  C   1.41017171731296     -0.44649269641717      0.42835294749918
  H   1.33769386185420      0.13207647510751      1.39271161381427
  C   1.93103851082508     -1.84330550125692      0.71061947268273
  H   2.83785107525797     -1.79822281243581      1.30908680182481
  H   2.14161929705678     -2.40354504614243     -0.20119372316774
  H   1.17090926850883     -2.37917142878826      1.27975249254499
  N   2.41249648254728      0.36702244776467     -0.35860964940443
  O   3.59633004441915      0.08234679598497     -0.25608729057975
  O   2.00198410813233      1.32225993389752     -1.00484440258694
  O   2.07645393067158      3.32195714911078      2.13297475026589
  H   2.98139766042341      3.35662072377215      2.46061384034536
  N   -3.10804876405955      1.57138413181461      0.11722985986652
  O   -4.22946221040748      1.55467022961000     -0.36829591987076
  O   -2.74779882951644      2.35382676455356      0.98370103558071
  H   0.24265435383542      1.12011875956050      3.14045617024631
  H   1.70290228735631      2.41322423997232      2.45292767103060
  O   1.17390683021508      1.04710865195735      2.90310154888481
