25
Coordinates from ORCA-job /home/rudenko/2025/kie/for_orca/ch2chch2no2_pyridine/orca/ts_opt/ts_opt E -647.068683100336
  C      -2.403696      0.924690      0.503844
  H      -2.992023      1.344257     -0.304272
  N      -3.764277     -1.117179      0.309263
  O      -4.450433     -0.598979     -0.592166
  O      -4.070421     -2.227399      0.792962
  H      -0.930726      1.320717      1.975697
  C      -2.569904     -0.506165      0.736876
  H      -1.627935     -1.127266     -0.169824
  H      -2.263560     -0.906018      1.696766
  C      -1.544556      1.704042      1.168234
  H      -1.430152      2.749744      0.914401
  C       1.702861     -0.066216      0.598178
  C       2.879573      0.627263      0.826415
  C       3.696550      0.928831     -0.257146
  C       3.311170      0.526965     -1.530811
  C       2.119076     -0.162761     -1.677379
  N       1.338692     -0.448370     -0.629968
  H       1.026069     -0.325208      1.401862
  H       3.145513      0.923323      1.831407
  H       3.920398      0.742216     -2.397397
  H       1.768280     -0.499290     -2.644619
  H       4.622280      1.470040     -0.111058
  H      -0.777983     -2.551048     -0.702103
  H       0.156280     -1.110835     -0.801298
  O      -0.861074     -1.615353     -0.937863
25
Coordinates from ORCA-job /home/rudenko/2025/kie/for_orca/ch2chch2no2_pyridine/orca/ts_opt/ts_opt E -647.068627390057
  C      -2.478572      0.947271      0.458741
  H      -3.131940      1.305583     -0.328626
  N      -3.732206     -1.170153      0.407485
  O      -4.494153     -0.721649     -0.470147
  O      -3.949557     -2.277367      0.943346
  H      -0.952756      1.473969      1.832527
  C      -2.552147     -0.481222      0.747216
  H      -1.628003     -1.082453     -0.190727
  H      -2.172229     -0.830036      1.700675
  C      -1.629493      1.794789      1.048419
  H      -1.587194      2.835423      0.754648
  C       1.741063     -0.153826      0.611615
  C       2.932960      0.503820      0.865666
  C       3.736930      0.865672     -0.209134
  C       3.323993      0.557426     -1.500143
  C       2.118302     -0.102127     -1.672169
  N       1.350427     -0.445879     -0.633020
  H       1.073224     -0.456085      1.407645
  H       3.220309      0.726627      1.883592
  H       3.922272      0.821853     -2.360725
  H       1.745920     -0.366276     -2.653707
  H       4.673795      1.381331     -0.042981
  H      -0.810241     -2.498978     -0.789293
  H       0.153654     -1.075590     -0.828255
  O      -0.874359     -1.552124     -0.982650
25
Coordinates from ORCA-job /home/rudenko/2025/kie/for_orca/ch2chch2no2_pyridine/orca/ts_opt/ts_opt E -647.068741574955
  C      -2.413914      0.931766      0.463730
  H      -3.045540      1.321496     -0.326456
  N      -3.747353     -1.135686      0.383126
  O      -4.485278     -0.649299     -0.494801
  O      -4.013023     -2.237261      0.908685
  H      -0.877453      1.385925      1.851664
  C      -2.545599     -0.494780      0.740007
  H      -1.632543     -1.120195     -0.192539
  H      -2.188100     -0.864929      1.694063
  C      -1.535631      1.739898      1.065871
  H      -1.449376      2.780159      0.780537
  C       1.705306     -0.126695      0.610494
  C       2.882724      0.557662      0.861487
  C       3.690379      0.911108     -0.213311
  C       3.295403      0.568156     -1.501207
  C       2.103680     -0.117151     -1.670256
  N       1.332153     -0.452674     -0.631118
  H       1.034821     -0.423300      1.406681
  H       3.156057      0.807470      1.877016
  H       3.896782      0.825691     -2.361715
  H       1.745464     -0.408513     -2.649351
  H       4.615968      1.447504     -0.049603
  H      -0.798796     -2.540850     -0.757762
  H       0.147101     -1.106158     -0.822801
  O      -0.873231     -1.599342     -0.972438
25
Coordinates from ORCA-job /home/rudenko/2025/kie/for_orca/ch2chch2no2_pyridine/orca/ts_opt/ts_opt E -647.068639362014
  C      -2.474747      0.939677      0.477987
  H      -3.168809      1.300765     -0.272423
  N      -3.709089     -1.190526      0.460273
  O      -4.524726     -0.732164     -0.362124
  O      -3.897604     -2.298970      1.004232
  H      -0.877835      1.460724      1.771242
  C      -2.522128     -0.492061      0.753938
  H      -1.631816     -1.068187     -0.228018
  H      -2.095378     -0.846152      1.685383
  C      -1.599537      1.786204      1.029765
  H      -1.578162      2.829765      0.744250
  C       1.683390     -0.115486      0.591577
  C       2.875075      0.530709      0.874393
  C       3.723711      0.854602     -0.177871
  C       3.353555      0.522200     -1.475922
  C       2.145250     -0.124327     -1.677339
  N       1.334849     -0.432666     -0.659552
  H       0.981180     -0.387738      1.369281
  H       3.127838      0.774196      1.896780
  H       3.986736      0.758220     -2.319617
  H       1.805129     -0.406053     -2.665644
  H       4.661434      1.360834      0.010917
  H      -0.838661     -2.464752     -0.898455
  H       0.136384     -1.048803     -0.882158
  O      -0.896036     -1.510011     -1.050895
25
Coordinates from ORCA-job /home/rudenko/2025/kie/for_orca/ch2chch2no2_pyridine/orca/ts_opt/ts_opt E -647.068711724621
  C      -2.396124      0.924993      0.480081
  H      -3.040003      1.327216     -0.293792
  N      -3.746155     -1.131513      0.404622
  O      -4.489775     -0.637175     -0.463987
  O      -4.002900     -2.243288      0.912856
  H      -0.830294      1.354445      1.842781
  C      -2.533449     -0.503089      0.745242
  H      -1.638882     -1.124212     -0.210391
  H      -2.160612     -0.885244      1.688571
  C      -1.500157      1.720612      1.072824
  H      -1.412055      2.763132      0.796453
  C       1.668692     -0.095805      0.598524
  C       2.842404      0.590880      0.860244
  C       3.674128      0.919062     -0.204146
  C       3.306217      0.549020     -1.492533
  C       2.116529     -0.137048     -1.672539
  N       1.321514     -0.447766     -0.643459
  H       0.980094     -0.373086      1.386085
  H       3.094409      0.861930      1.875837
  H       3.926791      0.786428     -2.345170
  H       1.778822     -0.448772     -2.652658
  H       4.597485      1.456683     -0.032033
  H      -0.809513     -2.536148     -0.805099
  H       0.136658     -1.100462     -0.846073
  O      -0.883824     -1.590793     -1.002242
25
Coordinates from ORCA-job /home/rudenko/2025/kie/for_orca/ch2chch2no2_pyridine/orca/ts_opt/ts_opt E -647.068757131729
  C      -2.436102      0.935567      0.463541
  H      -3.117471      1.307877     -0.292996
  N      -3.724693     -1.161402      0.458524
  O      -4.514357     -0.698723     -0.386591
  O      -3.933344     -2.270750      0.993332
  H      -0.838958      1.430071      1.766614
  C      -2.521121     -0.492281      0.750904
  H      -1.637977     -1.098183     -0.225176
  H      -2.106587     -0.850169      1.686297
  C      -1.545149      1.765539      1.015348
  H      -1.498268      2.806435      0.723265
  C       1.678175     -0.128806      0.599851
  C       2.860207      0.536433      0.878964
  C       3.695042      0.883390     -0.176966
  C       3.322024      0.552500     -1.474531
  C       2.124286     -0.114575     -1.671911
  N       1.326089     -0.443143     -0.650843
  H       0.987193     -0.419877      1.380371
  H       3.116175      0.776677      1.901303
  H       3.944921      0.805433     -2.320992
  H       1.782492     -0.396007     -2.659740
  H       4.624885      1.405071      0.008764
  H      -0.828258     -2.502566     -0.864068
  H       0.133811     -1.077188     -0.868733
  O      -0.893012     -1.551321     -1.034533
25
Coordinates from ORCA-job /home/rudenko/2025/kie/for_orca/ch2chch2no2_pyridine/orca/ts_opt/ts_opt E -647.068782312242
  C      -2.436300      0.939504      0.424225
  H      -3.162546      1.284660     -0.302869
  N      -3.693541     -1.174151      0.536284
  O      -4.541155     -0.734382     -0.263845
  O      -3.866589     -2.263816      1.121854
  H      -0.772605      1.483861      1.620329
  C      -2.486866     -0.481467      0.750623
  H      -1.639120     -1.093954     -0.251055
  H      -2.019950     -0.809741      1.672087
  C      -1.525286      1.792624      0.903301
  H      -1.507253      2.825932      0.582485
  C       1.665131     -0.187332      0.605938
  C       2.844438      0.470004      0.913765
  C       3.676954      0.867033     -0.126179
  C       3.304063      0.592893     -1.436986
  C       2.109092     -0.070086     -1.663261
  N       1.313441     -0.447610     -0.657236
  H       0.975159     -0.514798      1.373190
  H       3.099978      0.665932      1.945628
  H       3.925050      0.886314     -2.271703
  H       1.767756     -0.308697     -2.662440
  H       4.604564      1.384202      0.082014
  H      -0.849318     -2.493264     -0.922746
  H       0.122039     -1.075174     -0.898318
  O      -0.907135     -1.538487     -1.075085
25
Coordinates from ORCA-job /home/rudenko/2025/kie/for_orca/ch2chch2no2_pyridine/orca/ts_opt/ts_opt E -647.068815333558
  C      -2.424704      0.947529      0.368877
  H      -3.141845      1.274126     -0.375607
  N      -3.701447     -1.149063      0.540643
  O      -4.531097     -0.735179     -0.291533
  O      -3.887151     -2.220364      1.155646
  H      -0.770833      1.519673      1.565157
  C      -2.490337     -0.461144      0.742210
  H      -1.637630     -1.114972     -0.232085
  H      -2.034187     -0.762703      1.678042
  C      -1.512782      1.809648      0.829608
  H      -1.484343      2.831918      0.475918
  C       1.713097     -0.276166      0.629147
  C       2.886713      0.394643      0.929369
  C       3.664533      0.877165     -0.116714
  C       3.244615      0.671831     -1.425911
  C       2.058847     -0.010054     -1.644421
  N       1.315716     -0.469627     -0.632452
  H       1.064569     -0.668750      1.401743
  H       3.179774      0.535242      1.960273
  H       3.822391      1.032529     -2.265267
  H       1.682466     -0.197630     -2.641898
  H       4.586149      1.407215      0.085527
  H      -0.835874     -2.535607     -0.843159
  H       0.129208     -1.112942     -0.861954
  O      -0.895849     -1.587320     -1.031160
25
Coordinates from ORCA-job /home/rudenko/2025/kie/for_orca/ch2chch2no2_pyridine/orca/ts_opt/ts_opt E -647.068840275952
  C      -2.398064      0.942563      0.358809
  H      -3.122017      1.275708     -0.376086
  N      -3.698260     -1.137776      0.556590
  O      -4.533491     -0.718124     -0.267255
  O      -3.891082     -2.201445      1.182687
  H      -0.716189      1.495281      1.524793
  C      -2.476869     -0.463203      0.739820
  H      -1.639848     -1.128833     -0.240533
  H      -2.012223     -0.765622      1.671167
  C      -1.466564      1.793464      0.800946
  H      -1.429227      2.813748      0.442437
  C       1.696733     -0.285209      0.630543
  C       2.862820      0.395293      0.938378
  C       3.638536      0.892257     -0.102519
  C       3.224137      0.691343     -1.414164
  C       2.045741     -0.000743     -1.640366
  N       1.304915     -0.474806     -0.633459
  H       1.049286     -0.688071      1.398905
  H       3.151476      0.532516      1.970985
  H       3.800246      1.063690     -2.249567
  H       1.673616     -0.184933     -2.640052
  H       4.554134      1.430381      0.105648
  H      -0.839865     -2.550041     -0.849467
  H       0.122592     -1.125214     -0.868666
  O      -0.900530     -1.602223     -1.039574
25
Coordinates from ORCA-job /home/rudenko/2025/kie/for_orca/ch2chch2no2_pyridine/orca/ts_opt/ts_opt E -647.068837915599
  C      -2.372266      0.939448      0.342674
  H      -3.104387      1.277540     -0.381862
  N      -3.698771     -1.119313      0.576173
  O      -4.531728     -0.702428     -0.251696
  O      -3.898874     -2.175451      1.212998
  H      -0.664959      1.477314      1.477541
  C      -2.466120     -0.461418      0.737931
  H      -1.642647     -1.147000     -0.247799
  H      -1.993651     -0.762250      1.665806
  C      -1.422010      1.780577      0.763214
  H      -1.376822      2.797861      0.397249
  C       1.690014     -0.307233      0.633887
  C       2.846850      0.385928      0.948373
  C       3.611931      0.909216     -0.087512
  C       3.196856      0.720631     -1.400718
  C       2.028209      0.014292     -1.633530
  N       1.297536     -0.484969     -0.631582
  H       1.050180     -0.729508      1.398138
  H       3.136235      0.513009      1.982057
  H       3.764738      1.113580     -2.232314
  H       1.655914     -0.160994     -2.634755
  H       4.519943      1.458080      0.125813
  H      -0.841531     -2.570283     -0.847414
  H       0.118120     -1.143174     -0.870229
  O      -0.902760     -1.623454     -1.042442
25
Coordinates from ORCA-job /home/rudenko/2025/kie/for_orca/ch2chch2no2_pyridine/orca/ts_opt/ts_opt E -647.068846494164
  C      -2.387662      0.941159      0.351405
  H      -3.122852      1.274856     -0.372020
  N      -3.693872     -1.131820      0.577254
  O      -4.535117     -0.716013     -0.242630
  O      -3.883012     -2.192004      1.210567
  H      -0.684234      1.490895      1.486773
  C      -2.467350     -0.462362      0.740358
  H      -1.641612     -1.135492     -0.249078
  H      -1.990793     -0.762734      1.666297
  C      -1.445029      1.789603      0.774346
  H      -1.409503      2.808462      0.411670
  C       1.687721     -0.295525      0.630538
  C       2.849372      0.389064      0.945989
  C       3.624807      0.897438     -0.089603
  C       3.214744      0.703185     -1.403585
  C       2.040704      0.006195     -1.637413
  N       1.300104     -0.478783     -0.635657
  H       1.040223     -0.706569      1.394491
  H       3.134637      0.520914      1.980227
  H       3.790705      1.084565     -2.235007
  H       1.672021     -0.173059     -2.639271
  H       4.536861      1.439242      0.124503
  H      -0.844692     -2.554836     -0.863814
  H       0.118338     -1.130230     -0.876329
  O      -0.904509     -1.606150     -1.050009
25
Coordinates from ORCA-job /home/rudenko/2025/kie/for_orca/ch2chch2no2_pyridine/orca/ts_opt/ts_opt E -647.068831353827
  C      -2.411765      0.944931      0.362761
  H      -3.167387      1.268384     -0.344066
  N      -3.676422     -1.151593      0.605158
  O      -4.538496     -0.749664     -0.199804
  O      -3.832394     -2.219785      1.233959
  H      -0.693916      1.519827      1.463626
  C      -2.459211     -0.461047      0.747647
  H      -1.641268     -1.115819     -0.260602
  H      -1.959585     -0.756280      1.663030
  C      -1.474804      1.807865      0.768722
  H      -1.464661      2.828497      0.409444
  C       1.673778     -0.283226      0.622683
  C       2.841021      0.386541      0.949006
  C       3.638178      0.875232     -0.079526
  C       3.243202      0.677128     -1.397580
  C       2.062168     -0.004077     -1.642418
  N       1.300940     -0.470626     -0.647342
  H       1.009458     -0.678296      1.380619
  H       3.113867      0.522306      1.986083
  H       3.836014      1.043742     -2.223782
  H       1.704420     -0.185281     -2.647885
  H       4.555141      1.405166      0.143124
  H      -0.859237     -2.524960     -0.916217
  H       0.114274     -1.107505     -0.898520
  O      -0.913315     -1.571460     -1.078119
25
Coordinates from ORCA-job /home/rudenko/2025/kie/for_orca/ch2chch2no2_pyridine/orca/ts_opt/ts_opt E -647.068796843600
  C      -2.425516      0.940317      0.409722
  H      -3.167413      1.281442     -0.303366
  N      -3.683715     -1.169269      0.561248
  O      -4.537148     -0.739799     -0.238532
  O      -3.854986     -2.247895      1.167792
  H      -0.737447      1.490662      1.567606
  C      -2.473535     -0.476921      0.751214
  H      -1.638835     -1.102142     -0.259513
  H      -1.992416     -0.796618      1.668505
  C      -1.503090      1.795359      0.862979
  H      -1.490783      2.826536      0.535162
  C       1.658550     -0.211742      0.607944
  C       2.831261      0.452742      0.925288
  C       3.659565      0.873006     -0.108867
  C       3.289249      0.614015     -1.423515
  C       2.100725     -0.057112     -1.659335
  N       1.309578     -0.457858     -0.658839
  H       0.970772     -0.554953      1.370018
  H       3.084455      0.637037      1.959850
  H       3.906598      0.926423     -2.254017
  H       1.760797     -0.283275     -2.661881
  H       4.581767      1.396723      0.106727
  H      -0.857082     -2.502852     -0.935619
  H       0.119391     -1.086559     -0.905922
  O      -0.910743     -1.547269     -1.084649
25
Coordinates from ORCA-job /home/rudenko/2025/kie/for_orca/ch2chch2no2_pyridine/orca/ts_opt/ts_opt E -647.068616266805
  C      -2.451268      0.934335      0.492768
  H      -3.199338      1.297381     -0.202666
  N      -3.678872     -1.197997      0.543439
  O      -4.522339     -0.759106     -0.261500
  O      -3.822982     -2.317529      1.078125
  H      -0.761723      1.453368      1.663200
  C      -2.479584     -0.497644      0.769229
  H      -1.641512     -1.067755     -0.268992
  H      -1.996539     -0.851987      1.672233
  C      -1.536450      1.779685      0.978509
  H      -1.538419      2.824297      0.696182
  C       1.611099     -0.091961      0.571168
  C       2.793828      0.553597      0.890042
  C       3.684861      0.855841     -0.133020
  C       3.364540      0.502372     -1.438779
  C       2.162183     -0.142814     -1.676868
  N       1.310711     -0.430145     -0.686744
  H       0.876630     -0.346439      1.324315
  H       3.006910      0.813585      1.917368
  H       4.031231      0.721905     -2.260840
  H       1.859446     -0.439273     -2.673002
  H       4.616722      1.361574      0.084047
  H      -0.876334     -2.440963     -1.016928
  H       0.112507     -1.034970     -0.939338
  O      -0.925308     -1.479359     -1.121948
25
Coordinates from ORCA-job /home/rudenko/2025/kie/for_orca/ch2chch2no2_pyridine/orca/ts_opt/ts_opt E -647.068616758428
  C      -2.535249      0.944000      0.493588
  H      -3.319683      1.257223     -0.186114
  N      -3.639754     -1.249908      0.592117
  O      -4.542102     -0.848650     -0.168198
  O      -3.723545     -2.358892      1.161759
  H      -0.880984      1.581505      1.655414
  C      -2.472778     -0.486055      0.776450
  H      -1.638513     -1.019917     -0.294358
  H      -1.942611     -0.809954      1.664685
  C      -1.675458      1.850495      0.969648
  H      -1.753970      2.892677      0.689239
  C       1.635108     -0.096125      0.557022
  C       2.836262      0.505261      0.892899
  C       3.746014      0.787285     -0.119392
  C       3.427468      0.453729     -1.430806
  C       2.206585     -0.148645     -1.685728
  N       1.333636     -0.409409     -0.707071
  H       0.890024     -0.341523      1.301967
  H       3.049674      0.745337      1.924968
  H       4.110453      0.654465     -2.244260
  H       1.905551     -0.430301     -2.686650
  H       4.693016      1.257689      0.111034
  H      -0.897172     -2.360465     -1.126524
  H       0.118381     -0.976519     -0.973023
  O      -0.930354     -1.393302     -1.168666
25
Coordinates from ORCA-job /home/rudenko/2025/kie/for_orca/ch2chch2no2_pyridine/orca/ts_opt/ts_opt E -647.068741951485
  C      -2.477731      0.952303      0.406745
  H      -3.304285      1.237527     -0.234021
  N      -3.592759     -1.218562      0.715875
  O      -4.536275     -0.863758     -0.017238
  O      -3.636365     -2.299252      1.341821
  H      -0.719645      1.619081      1.386160
  C      -2.411792     -0.457995      0.771263
  H      -1.642067     -1.050811     -0.318715
  H      -1.819359     -0.735016      1.635538
  C      -1.567029      1.866766      0.756424
  H      -1.646967      2.890547      0.415185
  C       1.612691     -0.245146      0.585307
  C       2.795994      0.370038      0.957899
  C       3.668419      0.793668     -0.037933
  C       3.330152      0.587099     -1.370424
  C       2.128082     -0.036237     -1.662258
  N       1.294359     -0.440060     -0.698428
  H       0.891447     -0.589893      1.315594
  H       3.023199      0.514236      2.004761
  H       3.982565      0.903332     -2.172166
  H       1.812407     -0.221640     -2.680962
  H       4.599769      1.280182      0.221063
  H      -0.924659     -2.401822     -1.138765
  H       0.091969     -1.019492     -0.990222
  O      -0.952121     -1.435092     -1.192503
25
Coordinates from ORCA-job /home/rudenko/2025/kie/for_orca/ch2chch2no2_pyridine/orca/ts_opt/ts_opt E -647.068714304463
  C      -2.520656      0.949556      0.453815
  H      -3.345528      1.233249     -0.189851
  N      -3.590251     -1.253116      0.693753
  O      -4.537772     -0.897211     -0.033799
  O      -3.614392     -2.352148      1.288345
  H      -0.790350      1.630672      1.472676
  C      -2.426855     -0.468578      0.780230
  H      -1.642252     -1.019907     -0.324724
  H      -1.834465     -0.757453      1.640606
  C      -1.635439      1.874966      0.838635
  H      -1.734642      2.905119      0.522415
  C       1.604714     -0.166646      0.567375
  C       2.800772      0.426044      0.935695
  C       3.709266      0.767054     -0.059596
  C       3.393256      0.502778     -1.387322
  C       2.176260     -0.092658     -1.675218
  N       1.307361     -0.416210     -0.712029
  H       0.857773     -0.451217      1.297450
  H       3.010450      0.615715      1.978954
  H       4.074392      0.753129     -2.188465
  H       1.876902     -0.320709     -2.690178
  H       4.651716      1.233510      0.196159
  H      -0.932252     -2.345068     -1.192093
  H       0.096179     -0.973935     -1.003168
  O      -0.954185     -1.376935     -1.209664
25
Coordinates from ORCA-job /home/rudenko/2025/kie/for_orca/ch2chch2no2_pyridine/orca/ts_opt/ts_opt E -647.068603985568
  C      -2.547601      0.946494      0.468854
  H      -3.414634      1.199284     -0.130880
  N      -3.523177     -1.290907      0.776393
  O      -4.525515     -0.971969      0.106000
  O      -3.469642     -2.392959      1.365477
  H      -0.783128      1.687947      1.383248
  C      -2.388317     -0.464865      0.793653
  H      -1.644053     -0.989579     -0.374179
  H      -1.729650     -0.735134      1.610680
  C      -1.671616      1.902008      0.799007
  H      -1.820731      2.926149      0.482661
  C       1.557254     -0.141850      0.547989
  C       2.760760      0.412936      0.949597
  C       3.711183      0.714170     -0.019069
  C       3.427815      0.450842     -1.354282
  C       2.200295     -0.103840     -1.676568
  N       1.291949     -0.391447     -0.738783
  H       0.778846     -0.395664      1.256432
  H       2.943677      0.604359      1.997520
  H       4.142071      0.671006     -2.135170
  H       1.925353     -0.329833     -2.698842
  H       4.660596      1.150264      0.263135
  H      -0.976883     -2.255127     -1.335496
  H       0.077908     -0.914091     -1.056856
  O      -0.982761     -1.288194     -1.280521
25
Coordinates from ORCA-job /home/rudenko/2025/kie/for_orca/ch2chch2no2_pyridine/orca/ts_opt/ts_opt E -647.068747953660
  C      -2.524455      0.948043      0.456097
  H      -3.346635      1.234524     -0.189888
  N      -3.597495     -1.254328      0.688750
  O      -4.545817     -0.893453     -0.035688
  O      -3.624792     -2.354264      1.282103
  H      -0.793869      1.623203      1.478351
  C      -2.434722     -0.470378      0.781325
  H      -1.643253     -1.022258     -0.326151
  H      -1.844457     -0.761674      1.642355
  C      -1.636723      1.870440      0.842783
  H      -1.731848      2.901024      0.526719
  C       1.608830     -0.160206      0.568477
  C       2.806187      0.431535      0.933949
  C       3.714319      0.768249     -0.063075
  C       3.396619      0.500855     -1.389729
  C       2.178454     -0.093575     -1.674811
  N       1.309852     -0.413092     -0.709972
  H       0.862660     -0.441665      1.300205
  H       3.017236      0.623626      1.976486
  H       4.077547      0.747597     -2.192160
  H       1.877917     -0.324168     -2.688836
  H       4.658038      1.233304      0.190589
  H      -0.929756     -2.344986     -1.190984
  H       0.098688     -0.971542     -0.999427
  O      -0.952524     -1.376810     -1.207468
25
Coordinates from ORCA-job /home/rudenko/2025/kie/for_orca/ch2chch2no2_pyridine/orca/ts_opt/ts_opt E -647.068780596216
  C      -2.529932      0.946409      0.462780
  H      -3.348905      1.235905     -0.185939
  N      -3.602859     -1.257567      0.679140
  O      -4.548922     -0.892985     -0.046828
  O      -3.630917     -2.362508      1.263715
  H      -0.804040      1.617067      1.496104
  C      -2.442354     -0.472932      0.782911
  H      -1.642011     -1.020912     -0.326941
  H      -1.855442     -0.768797      1.644595
  C      -1.643549      1.867001      0.857239
  H      -1.736968      2.898913      0.545051
  C       1.610844     -0.145686      0.568217
  C       2.810941      0.443097      0.929327
  C       3.721482      0.766539     -0.069899
  C       3.403352      0.489289     -1.394411
  C       2.182439     -0.101462     -1.675220
  N       1.311497     -0.408055     -0.708257
  H       0.863161     -0.417469      1.301967
  H       3.022323      0.642977      1.970328
  H       4.086085      0.725571     -2.198446
  H       1.881428     -0.339352     -2.687407
  H       4.667485      1.228735      0.180462
  H      -0.926756     -2.338874     -1.190239
  H       0.101840     -0.964258     -0.994485
  O      -0.950222     -1.370646     -1.203766
25
Coordinates from ORCA-job /home/rudenko/2025/kie/for_orca/ch2chch2no2_pyridine/orca/ts_opt/ts_opt E -647.068737733165
  C      -2.470646      0.945027      0.451612
  H      -3.263601      1.264248     -0.215352
  N      -3.628290     -1.220338      0.634896
  O      -4.536570     -0.821747     -0.118405
  O      -3.713538     -2.320529      1.219724
  H      -0.748514      1.551728      1.528310
  C      -2.438638     -0.479145      0.768749
  H      -1.644896     -1.050295     -0.293744
  H      -1.893262     -0.790381      1.652372
  C      -1.563106      1.832753      0.870430
  H      -1.613299      2.868384      0.560549
  C       1.607426     -0.163774      0.574372
  C       2.791639      0.462273      0.925484
  C       3.680471      0.819013     -0.081867
  C       3.357392      0.536199     -1.404079
  C       2.153411     -0.093336     -1.674212
  N       1.303129     -0.431571     -0.699528
  H       0.875740     -0.461324      1.314560
  H       3.007557      0.665151      1.965017
  H       4.023494      0.797530     -2.214323
  H       1.849562     -0.337196     -2.684182
  H       4.613608      1.310805      0.160285
  H      -0.904735     -2.412947     -1.096363
  H       0.097171     -1.022625     -0.976197
  O      -0.941506     -1.447903     -1.168108
25
Coordinates from ORCA-job /home/rudenko/2025/kie/for_orca/ch2chch2no2_pyridine/orca/ts_opt/ts_opt E -647.068757658971
  C      -2.489579      0.942583      0.464159
  H      -3.269578      1.265746     -0.215948
  N      -3.646850     -1.224377      0.608475
  O      -4.545158     -0.817022     -0.152862
  O      -3.739279     -2.333044      1.177194
  H      -0.791863      1.545296      1.581402
  C      -2.462705     -0.483070      0.771932
  H      -1.644264     -1.050034     -0.290364
  H      -1.931081     -0.803478      1.660523
  C      -1.592287      1.829029      0.907721
  H      -1.637982      2.866652      0.603982
  C       1.625018     -0.138706      0.575091
  C       2.816061      0.481443      0.913106
  C       3.704967      0.814891     -0.102151
  C       3.375060      0.515574     -1.418981
  C       2.164540     -0.106691     -1.676000
  N       1.313973     -0.421975     -0.693834
  H       0.893961     -0.419607      1.322149
  H       3.037249      0.697475      1.948857
  H       4.040854      0.758792     -2.235083
  H       1.855079     -0.362484     -2.681301
  H       4.643365      1.301520      0.129832
  H      -0.893610     -2.406455     -1.084006
  H       0.107529     -1.010824     -0.960385
  O      -0.933422     -1.441235     -1.153505
25
Coordinates from ORCA-job /home/rudenko/2025/kie/for_orca/ch2chch2no2_pyridine/orca/ts_opt/ts_opt E -647.068743235402
  C      -2.436187      0.929435      0.481121
  H      -3.154242      1.301336     -0.240876
  N      -3.700499     -1.181161      0.500931
  O      -4.529145     -0.710452     -0.301168
  O      -3.881219     -2.297067      1.032456
  H      -0.793138      1.432373      1.722072
  C      -2.495660     -0.501593      0.759866
  H      -1.642938     -1.091130     -0.251414
  H      -2.042324     -0.863138      1.675597
  C      -1.531887      1.764966      1.001929
  H      -1.510043      2.808947      0.718064
  C       1.634172     -0.096621      0.580938
  C       2.816354      0.558455      0.882427
  C       3.686019      0.874572     -0.154878
  C       3.346761      0.522992     -1.456327
  C       2.146585     -0.132532     -1.676227
  N       1.314080     -0.429767     -0.673202
  H       0.917911     -0.366203      1.346257
  H       3.045494      0.814580      1.907263
  H       3.997317      0.751653     -2.288776
  H       1.829885     -0.428312     -2.668257
  H       4.616814      1.387970      0.048239
  H      -0.845384     -2.476032     -0.954290
  H       0.119158     -1.055070     -0.908442
  O      -0.907882     -1.518199     -1.083303
25
Coordinates from ORCA-job /home/rudenko/2025/kie/for_orca/ch2chch2no2_pyridine/orca/ts_opt/ts_opt E -647.068776239962
  C      -2.460806      0.933213      0.476653
  H      -3.192890      1.289347     -0.239116
  N      -3.692816     -1.196141      0.529519
  O      -4.541558     -0.746169     -0.264151
  O      -3.846516     -2.312059      1.070172
  H      -0.809337      1.469663      1.692878
  C      -2.495208     -0.496413      0.764573
  H      -1.643883     -1.079929     -0.263668
  H      -2.020450     -0.847442      1.673406
  C      -1.562940      1.786003      0.980712
  H      -1.560356      2.828097      0.689155
  C       1.641071     -0.105549      0.581186
  C       2.829133      0.535610      0.889484
  C       3.702308      0.853491     -0.144308
  C       3.360577      0.517657     -1.449236
  C       2.154256     -0.124040     -1.676181
  N       1.318368     -0.423279     -0.676504
  H       0.922504     -0.376504      1.343662
  H       3.060266      0.779322      1.916892
  H       4.014063      0.747646     -2.279019
  H       1.835719     -0.407687     -2.671128
  H       4.637914      1.355869      0.064270
  H      -0.855610     -2.452586     -0.991941
  H       0.119048     -1.036365     -0.917741
  O      -0.912858     -1.491753     -1.099568
25
Coordinates from ORCA-job /home/rudenko/2025/kie/for_orca/ch2chch2no2_pyridine/orca/ts_opt/ts_opt E -647.068790797068
  C      -2.461912      0.935804      0.460998
  H      -3.208998      1.278755     -0.245799
  N      -3.679790     -1.199709      0.563839
  O      -4.545913     -0.765293     -0.219557
  O      -3.818497     -2.306794      1.125996
  H      -0.792234      1.497002      1.640749
  C      -2.480979     -0.490864      0.764729
  H      -1.645708     -1.077675     -0.273121
  H      -1.986042     -0.828492      1.667896
  C      -1.561229      1.800214      0.939395
  H      -1.571198      2.838941      0.636190
  C       1.638011     -0.132195      0.583280
  C       2.824511      0.506189      0.903197
  C       3.696394      0.845738     -0.124732
  C       3.354906      0.533716     -1.435605
  C       2.150136     -0.106812     -1.674155
  N       1.315474     -0.427232     -0.680073
  H       0.920071     -0.418604      1.340844
  H       3.055299      0.731418      1.934891
  H       4.007404      0.781083     -2.261160
  H       1.832060     -0.372505     -2.674195
  H       4.630625      1.346840      0.092876
  H      -0.866397     -2.447585     -1.019583
  H       0.113294     -1.036620     -0.930699
  O      -0.919289     -1.485323     -1.116203
25
Coordinates from ORCA-job /home/rudenko/2025/kie/for_orca/ch2chch2no2_pyridine/orca/ts_opt/ts_opt E -647.068796951542
  C      -2.453761      0.937441      0.439911
  H      -3.219426      1.266766     -0.253344
  N      -3.660877     -1.199739      0.609673
  O      -4.547520     -0.782648     -0.160025
  O      -3.782288     -2.295711      1.196825
  H      -0.757272      1.521865      1.569004
  C      -2.459095     -0.484510      0.765007
  H      -1.647482     -1.079262     -0.286546
  H      -1.937669     -0.806727      1.658885
  C      -1.544887      1.812057      0.882923
  H      -1.566645      2.846165      0.564871
  C       1.626832     -0.165321      0.585155
  C       2.809388      0.471975      0.921310
  C       3.680334      0.840324     -0.097431
  C       3.341707      0.557259     -1.415610
  C       2.140718     -0.084298     -1.670370
  N       1.307133     -0.432968     -0.685017
  H       0.909049     -0.471976      1.335009
  H       3.037669      0.674657      1.958228
  H       3.993426      0.827767     -2.234493
  H       1.825124     -0.328091     -2.676770
  H       4.611417      1.341623      0.132837
  H      -0.880946     -2.445153     -1.054133
  H       0.103742     -1.040082     -0.948138
  O      -0.928669     -1.481413     -1.137761
25
Coordinates from ORCA-job /home/rudenko/2025/kie/for_orca/ch2chch2no2_pyridine/orca/ts_opt/ts_opt E -647.068802433280
  C      -2.456957      0.938486      0.435542
  H      -3.222865      1.263312     -0.259541
  N      -3.659019     -1.200503      0.615503
  O      -4.548322     -0.788242     -0.153907
  O      -3.776568     -2.294986      1.206387
  H      -0.763840      1.531566      1.565040
  C      -2.458781     -0.482193      0.765738
  H      -1.647048     -1.079185     -0.287845
  H      -1.934080     -0.800712      1.659046
  C      -1.550962      1.817177      0.876549
  H      -1.575020      2.850061      0.554704
  C       1.629932     -0.171706      0.585740
  C       2.813110      0.463713      0.923172
  C       3.682502      0.836921     -0.095118
  C       3.341639      0.560465     -1.414138
  C       2.140063     -0.079542     -1.670142
  N       1.307971     -0.432924     -0.685204
  H       0.913438     -0.482050      1.335298
  H       3.043102      0.661091      1.960736
  H       3.992139      0.834754     -2.232726
  H       1.822939     -0.318451     -2.677227
  H       4.614120      1.336757      0.136155
  H      -0.882094     -2.444069     -1.056636
  H       0.103681     -1.039615     -0.948669
  O      -0.929080     -1.480127     -1.138456
25
Coordinates from ORCA-job /home/rudenko/2025/kie/for_orca/ch2chch2no2_pyridine/orca/ts_opt/ts_opt E -647.068801092717
  C      -2.445276      0.941085      0.414614
  H      -3.216582      1.255629     -0.279230
  N      -3.645039     -1.194996      0.644373
  O      -4.545396     -0.794957     -0.118587
  O      -3.754331     -2.279166      1.255366
  H      -0.743297      1.548996      1.522081
  C      -2.442652     -0.474792      0.764947
  H      -1.646761     -1.084643     -0.292457
  H      -1.903537     -0.780113      1.654349
  C      -1.535842      1.825790      0.836101
  H      -1.561750      2.853920      0.499517
  C       1.624704     -0.203989      0.586833
  C       2.803162      0.434096      0.935573
  C       3.666749      0.837110     -0.076241
  C       3.324628      0.587068     -1.400233
  C       2.127849     -0.057529     -1.667460
  N       1.301507     -0.440252     -0.688714
  H       0.912348     -0.535886      1.331194
  H       3.033843      0.610745      1.976722
  H       3.970541      0.885050     -2.214163
  H       1.810477     -0.276925     -2.678903
  H       4.594617      1.339771      0.163805
  H      -0.890814     -2.453879     -1.063398
  H       0.095988     -1.052202     -0.958939
  O      -0.935134     -1.489930     -1.147150
25
Coordinates from ORCA-job /home/rudenko/2025/kie/for_orca/ch2chch2no2_pyridine/orca/ts_opt/ts_opt E -647.068803966416
  C      -2.446381      0.941739      0.413242
  H      -3.215567      1.254994     -0.283524
  N      -3.645143     -1.194840      0.643309
  O      -4.545071     -0.795777     -0.120783
  O      -3.753888     -2.279474      1.253763
  H      -0.748823      1.552154      1.526055
  C      -2.443706     -0.473650      0.765137
  H      -1.645850     -1.084772     -0.291712
  H      -1.905198     -0.778097      1.655171
  C      -1.539132      1.827649      0.836989
  H      -1.564641      2.855418      0.499288
  C       1.626910     -0.205775      0.587196
  C       2.805838      0.431852      0.935255
  C       3.668138      0.836202     -0.077135
  C       3.324319      0.587871     -1.400992
  C       2.127187     -0.056373     -1.667509
  N       1.302049     -0.440396     -0.688259
  H       0.915561     -0.538589      1.332111
  H       3.037840      0.607149      1.976340
  H       3.969141      0.886980     -2.215377
  H       1.808518     -0.274316     -2.678859
  H       4.596322      1.338539      0.162376
  H      -0.890173     -2.454678     -1.059476
  H       0.096282     -1.052932     -0.957527
  O      -0.934532     -1.490875     -1.145078
