25
Coordinates from ORCA-job /home/rudenko/2025/kie/for_orca/m-clc6h4chno2ch3_oh/orca/ts_opt/ts_opt E -1127.293054501817
  C      -0.580320      2.785020     -0.173506
  C       0.036044      1.551811     -0.360198
  C      -0.686606      0.373655     -0.194034
  C      -2.033475      0.436445      0.163687
  C      -2.632505      1.673666      0.333304
  C      -1.923600      2.857832      0.172447
  H      -0.014680      3.699026     -0.300814
  H       1.082294      1.489316     -0.631730
  H      -2.612154     -0.467895      0.298091
  Cl     -4.331275      1.747532      0.762844
  H      -2.412778      3.811525      0.314183
  C       0.017265     -0.948564     -0.345377
  C       0.096098     -1.755031      0.940291
  H       0.708158     -2.644261      0.808286
  H      -0.893156     -2.047825      1.295320
  H       0.562474     -1.125901      1.698695
  N      -0.603768     -1.763809     -1.462828
  O      -0.487623     -2.980582     -1.424977
  O      -1.128306     -1.168343     -2.394945
  H       1.051193     -0.766867     -0.724016
  O       3.909034     -1.261851      1.327294
  H       3.163259     -1.414551      1.915897
  H       3.494387     -0.926899      0.428325
  H       3.345762     -0.730923     -1.614138
  O       2.874278     -0.422527     -0.832100
25
Coordinates from ORCA-job /home/rudenko/2025/kie/for_orca/m-clc6h4chno2ch3_oh/orca/ts_opt/ts_opt E -1127.293043266462
  C      -0.574809      2.781202     -0.171899
  C       0.039527      1.547734     -0.363720
  C      -0.683706      0.369941     -0.196241
  C      -2.028627      0.433351      0.168995
  C      -2.625052      1.670719      0.345992
  C      -1.915895      2.854565      0.182893
  H      -0.009147      3.694978     -0.301462
  H       1.084071      1.484847     -0.641878
  H      -2.607358     -0.470793      0.305552
  Cl     -4.320565      1.745156      0.788704
  H      -2.403170      3.808441      0.329890
  C       0.017030     -0.953277     -0.353079
  C       0.091192     -1.766048      0.928887
  H       0.699343     -2.657402      0.793051
  H      -0.899542     -2.055984      1.282122
  H       0.560172     -1.142593      1.690413
  N      -0.604054     -1.761020     -1.475988
  O      -0.504203     -2.979055     -1.436411
  O      -1.105678     -1.159162     -2.416279
  H       1.052298     -0.773775     -0.728340
  O       3.883201     -1.285735      1.328295
  H       3.163311     -1.245458      1.966376
  H       3.478003     -0.947065      0.426477
  H       3.342840     -0.756819     -1.614685
  O       2.870818     -0.436749     -0.837667
25
Coordinates from ORCA-job /home/rudenko/2025/kie/for_orca/m-clc6h4chno2ch3_oh/orca/ts_opt/ts_opt E -1127.293101311785
  C      -0.578180      2.783017     -0.175709
  C       0.039592      1.551199     -0.367158
  C      -0.679587      0.371379     -0.195781
  C      -2.023942      0.431186      0.172532
  C      -2.623535      1.666913      0.350300
  C      -1.918417      2.852707      0.183422
  H      -0.015837      3.698386     -0.308762
  H       1.083504      1.491301     -0.648181
  H      -2.599593     -0.474586      0.311819
  Cl     -4.317668      1.736586      0.799553
  H      -2.408109      3.805289      0.330833
  C       0.023246     -0.950736     -0.352992
  C       0.092824     -1.766452      0.927326
  H       0.700603     -2.657968      0.791213
  H      -0.899042     -2.056300      1.277394
  H       0.560430     -1.145158      1.691388
  N      -0.593945     -1.754701     -1.480571
  O      -0.532668     -2.974608     -1.424765
  O      -1.085881     -1.149446     -2.423663
  H       1.060348     -0.770854     -0.724669
  O       3.870678     -1.290545      1.331799
  H       3.146801     -1.237247      1.964843
  H       3.474789     -0.949004      0.426598
  H       3.345133     -0.775853     -1.614001
  O       2.878455     -0.434503     -0.842767
25
Coordinates from ORCA-job /home/rudenko/2025/kie/for_orca/m-clc6h4chno2ch3_oh/orca/ts_opt/ts_opt E -1127.293030703988
  C      -0.593728      2.793606     -0.182372
  C       0.031298      1.563715     -0.362382
  C      -0.684531      0.381460     -0.193886
  C      -2.032640      0.436854      0.160970
  C      -2.639544      1.670661      0.326695
  C      -1.938001      2.858882      0.162058
  H      -0.033920      3.710883     -0.312932
  H       1.078357      1.507123     -0.632347
  H      -2.605588     -0.470871      0.298639
  Cl     -4.338777      1.734781      0.756892
  H      -2.433464      3.809888      0.300051
  C       0.026884     -0.937564     -0.337253
  C       0.102343     -1.738889      0.951890
  H       0.717993     -2.626508      0.825892
  H      -0.887465     -2.033612      1.303800
  H       0.563507     -1.105439      1.709911
  N      -0.583392     -1.759122     -1.455962
  O      -0.472017     -2.975847     -1.408361
  O      -1.121434     -1.169798     -2.383880
  H       1.062349     -0.754050     -0.710198
  O       3.904629     -1.365322      1.294515
  H       3.165849     -1.457959      1.905358
  H       3.493392     -0.980352      0.414137
  H       3.341362     -0.686844     -1.613710
  O       2.876539     -0.405677     -0.817526
25
Coordinates from ORCA-job /home/rudenko/2025/kie/for_orca/m-clc6h4chno2ch3_oh/orca/ts_opt/ts_opt E -1127.292863179341
  C      -0.605454      2.800645     -0.183436
  C       0.025173      1.572441     -0.355631
  C      -0.688221      0.388154     -0.191019
  C      -2.039465      0.439925      0.152501
  C      -2.651940      1.672006      0.310099
  C      -1.952954      2.862216      0.148923
  H      -0.047597      3.719506     -0.311188
  H       1.074608      1.518716     -0.616606
  H      -2.610660     -0.469392      0.286811
  Cl     -4.355298      1.731329      0.724658
  H      -2.452862      3.811857      0.280162
  C       0.027980     -0.929072     -0.326853
  C       0.101513     -1.724920      0.966017
  H       0.720747     -2.610788      0.845851
  H      -0.888591     -2.021608      1.315573
  H       0.557806     -1.086892      1.723117
  N      -0.575485     -1.757375     -1.444074
  O      -0.437967     -2.971730     -1.403338
  O      -1.145043     -1.176198     -2.358214
  H       1.065066     -0.745300     -0.696989
  O       3.924824     -1.482101      1.245394
  H       3.223463     -1.480665      1.905440
  H       3.507245     -1.043912      0.392858
  H       3.342122     -0.622268     -1.612627
  O       2.880989     -0.394575     -0.797431
25
Coordinates from ORCA-job /home/rudenko/2025/kie/for_orca/m-clc6h4chno2ch3_oh/orca/ts_opt/ts_opt E -1127.293108141555
  C      -0.582412      2.783951     -0.177109
  C       0.035417      1.551969     -0.367212
  C      -0.683758      0.372286     -0.194924
  C      -2.028597      0.432522      0.171898
  C      -2.628024      1.668413      0.349236
  C      -1.922641      2.854002      0.182020
  H      -0.019866      3.699161     -0.310390
  H       1.079697      1.492071     -0.646697
  H      -2.604321     -0.473044      0.312082
  Cl     -4.321751      1.738475      0.800152
  H      -2.412012      3.806735      0.329557
  C       0.018766     -0.950742     -0.346842
  C       0.077593     -1.766427      0.933921
  H       0.684914     -2.658891      0.802343
  H      -0.917128     -2.054598      1.277045
  H       0.540935     -1.145838      1.700950
  N      -0.592804     -1.752987     -1.478957
  O      -0.521887     -2.972680     -1.431228
  O      -1.053732     -1.144844     -2.435659
  H       1.058865     -0.773176     -0.711625
  O       3.882298     -1.347257      1.311698
  H       3.205207     -1.182451      1.976651
  H       3.482980     -0.984681      0.416282
  H       3.343221     -0.752212     -1.624074
  O       2.879039     -0.439759     -0.839117
25
Coordinates from ORCA-job /home/rudenko/2025/kie/for_orca/m-clc6h4chno2ch3_oh/orca/ts_opt/ts_opt E -1127.293397073299
  C      -0.583662      2.782568     -0.181241
  C       0.039435      1.552880     -0.367752
  C      -0.672698      0.370656     -0.183985
  C      -2.016411      0.425845      0.187696
  C      -2.621285      1.659779      0.361682
  C      -1.922379      2.847760      0.184942
  H      -0.026778      3.699843     -0.323743
  H       1.082196      1.497332     -0.653667
  H      -2.587581     -0.481866      0.333088
  Cl     -4.313363      1.723721      0.819644
  H      -2.415611      3.798886      0.329878
  C       0.030936     -0.951704     -0.339361
  C       0.078275     -1.779504      0.933168
  H       0.683516     -2.672856      0.797096
  H      -0.918783     -2.068093      1.268271
  H       0.539309     -1.167361      1.708569
  N      -0.576509     -1.735654     -1.486172
  O      -0.629449     -2.954114     -1.402658
  O      -0.925830     -1.114555     -2.481111
  H       1.072640     -0.770111     -0.697032
  O       3.845086     -1.321073      1.314147
  H       3.162204     -1.126920      1.965292
  H       3.464391     -0.967882      0.407856
  H       3.329328     -0.811534     -1.631091
  O       2.883026     -0.436045     -0.863516
25
Coordinates from ORCA-job /home/rudenko/2025/kie/for_orca/m-clc6h4chno2ch3_oh/orca/ts_opt/ts_opt E -1127.293536382367
  C      -0.555790      2.765590     -0.156800
  C       0.059987      1.533573     -0.350999
  C      -0.659698      0.354675     -0.175851
  C      -2.003467      0.415360      0.194684
  C      -2.601113      1.651977      0.376522
  C      -1.894587      2.836515      0.208576
  H       0.006763      3.680372     -0.292791
  H       1.102359      1.473907     -0.637448
  H      -2.580515     -0.489750      0.333005
  Cl     -4.293233      1.723209      0.832738
  H      -2.381898      3.789730      0.359707
  C       0.032339     -0.973112     -0.345188
  C       0.066614     -1.819994      0.913715
  H       0.661897     -2.718418      0.765260
  H      -0.933495     -2.102949      1.243921
  H       0.533776     -1.224784      1.698822
  N      -0.583284     -1.726765     -1.507475
  O      -0.749805     -2.933864     -1.412810
  O      -0.840659     -1.088774     -2.520084
  H       1.075100     -0.794268     -0.701232
  O       3.788115     -1.177229      1.347632
  H       3.129146     -0.850936      1.970083
  H       3.430392     -0.899234      0.406348
  H       3.313045     -0.951753     -1.632626
  O       2.878010     -0.473077     -0.917708
25
Coordinates from ORCA-job /home/rudenko/2025/kie/for_orca/m-clc6h4chno2ch3_oh/orca/ts_opt/ts_opt E -1127.293684942820
  C      -0.543949      2.757669     -0.145171
  C       0.068799      1.524215     -0.338950
  C      -0.655041      0.347454     -0.167013
  C      -1.999594      0.411146      0.199547
  C      -2.594289      1.649438      0.380796
  C      -1.883776      2.831953      0.216145
  H       0.021554      3.670991     -0.278673
  H       1.111482      1.461661     -0.623821
  H      -2.579667     -0.492466      0.334977
  Cl     -4.287548      1.725046      0.831400
  H      -2.368792      3.786446      0.366525
  C       0.033211     -0.982383     -0.340922
  C       0.061364     -1.837060      0.911340
  H       0.649298     -2.739640      0.756167
  H      -0.940054     -2.115115      1.241505
  H       0.534257     -1.250803      1.699757
  N      -0.588762     -1.723311     -1.507896
  O      -0.837420     -2.914442     -1.396552
  O      -0.745507     -1.096823     -2.548255
  H       1.075794     -0.799878     -0.697516
  O       3.782417     -1.074778      1.347531
  H       3.074695     -0.818362      1.948661
  H       3.425186     -0.840409      0.393471
  H       3.307802     -1.006685     -1.631170
  O       2.878538     -0.473864     -0.951882
25
Coordinates from ORCA-job /home/rudenko/2025/kie/for_orca/m-clc6h4chno2ch3_oh/orca/ts_opt/ts_opt E -1127.293735928138
  C      -0.560761      2.768162     -0.158335
  C       0.063178      1.538927     -0.343228
  C      -0.650686      0.357056     -0.163649
  C      -1.996094      0.411130      0.201014
  C      -2.601655      1.645403      0.374045
  C      -1.901453      2.832894      0.201902
  H      -0.003439      3.685626     -0.297664
  H       1.106189      1.483344     -0.628294
  H      -2.567904     -0.496621      0.343453
  Cl     -4.295345      1.708984      0.824339
  H      -2.394995      3.784044      0.345675
  C       0.050656     -0.968396     -0.327448
  C       0.080999     -1.815583      0.928834
  H       0.672069     -2.717287      0.778320
  H      -0.918962     -2.095813      1.260893
  H       0.551509     -1.223340      1.714316
  N      -0.565572     -1.719863     -1.491139
  O      -0.878215     -2.892807     -1.351940
  O      -0.678121     -1.112552     -2.548349
  H       1.089626     -0.776587     -0.683333
  O       3.772784     -1.119336      1.322946
  H       3.015621     -1.026438      1.910946
  H       3.418372     -0.850024      0.377017
  H       3.308607     -0.968488     -1.634898
  O       2.883592     -0.432436     -0.955421
25
Coordinates from ORCA-job /home/rudenko/2025/kie/for_orca/m-clc6h4chno2ch3_oh/orca/ts_opt/ts_opt E -1127.293799435444
  C      -0.565697      2.769684     -0.148539
  C       0.061416      1.541369     -0.328573
  C      -0.653375      0.358776     -0.157193
  C      -2.002574      0.410814      0.193225
  C      -2.611272      1.644480      0.360719
  C      -1.910255      2.832655      0.197570
  H      -0.007816      3.687936     -0.280226
  H       1.107372      1.486552     -0.602764
  H      -2.574748     -0.497614      0.329506
  Cl     -4.309758      1.706024      0.792348
  H      -2.406156      3.783199      0.337257
  C       0.053260     -0.965948     -0.313921
  C       0.072603     -1.811156      0.943190
  H       0.660462     -2.715988      0.796662
  H      -0.929828     -2.087037      1.270830
  H       0.540480     -1.219985      1.730994
  N      -0.561025     -1.718491     -1.478775
  O      -0.939245     -2.869550     -1.321865
  O      -0.607186     -1.133000     -2.553108
  H       1.091722     -0.770505     -0.668289
  O       3.807245     -1.080565      1.299054
  H       3.033539     -1.130643      1.869735
  H       3.438245     -0.822092      0.354056
  H       3.314186     -0.982115     -1.641610
  O       2.898407     -0.416801     -0.980285
25
Coordinates from ORCA-job /home/rudenko/2025/kie/for_orca/m-clc6h4chno2ch3_oh/orca/ts_opt/ts_opt E -1127.293854164315
  C      -0.581872      2.777872     -0.152863
  C       0.050821      1.551610     -0.326842
  C      -0.661205      0.366868     -0.158270
  C      -2.012780      0.413997      0.182907
  C      -2.626621      1.645885      0.344944
  C      -1.928704      2.836320      0.184805
  H      -0.026516      3.698019     -0.281901
  H       1.098553      1.499336     -0.594935
  H      -2.582046     -0.496242      0.318953
  Cl     -4.327419      1.702228      0.767147
  H      -2.428757      3.785246      0.320579
  C       0.057437     -0.953660     -0.301089
  C       0.072440     -1.787097      0.964162
  H       0.660977     -2.693306      0.827818
  H      -0.931035     -2.059818      1.290474
  H       0.536226     -1.188329      1.748976
  N      -0.547926     -1.722581     -1.463786
  O      -0.948855     -2.862989     -1.288323
  O      -0.566294     -1.160487     -2.551145
  H       1.091863     -0.750598     -0.649951
  O       3.842886     -1.109083      1.273379
  H       3.083196     -1.356382      1.810544
  H       3.451993     -0.823961      0.343699
  H       3.318377     -0.935213     -1.639405
  O       2.905263     -0.377634     -0.969878
25
Coordinates from ORCA-job /home/rudenko/2025/kie/for_orca/m-clc6h4chno2ch3_oh/orca/ts_opt/ts_opt E -1127.293923468455
  C      -0.591056      2.783645     -0.146643
  C       0.046833      1.559285     -0.315253
  C      -0.664455      0.372524     -0.155971
  C      -2.019987      0.415144      0.168606
  C      -2.639157      1.645363      0.322955
  C      -1.942284      2.837829      0.173714
  H      -0.036725      3.705585     -0.267085
  H       1.097693      1.509141     -0.571541
  H      -2.588722     -0.496737      0.295380
  Cl     -4.345994      1.696887      0.719900
  H      -2.446813      3.785174      0.303851
  C       0.063072     -0.944393     -0.291546
  C       0.086642     -1.765830      0.981475
  H       0.666459     -2.677977      0.846424
  H      -0.915055     -2.026998      1.322069
  H       0.565100     -1.162928      1.754911
  N      -0.545585     -1.727493     -1.446193
  O      -0.962368     -2.858941     -1.252137
  O      -0.565666     -1.178191     -2.539487
  H       1.092407     -0.736129     -0.643613
  O       3.842748     -1.117258      1.259544
  H       3.123804     -1.544952      1.736177
  H       3.442172     -0.817369      0.336863
  H       3.328072     -0.907711     -1.628004
  O       2.908866     -0.347668     -0.964396
25
Coordinates from ORCA-job /home/rudenko/2025/kie/for_orca/m-clc6h4chno2ch3_oh/orca/ts_opt/ts_opt E -1127.293993839950
  C      -0.607880      2.793645     -0.151785
  C       0.036858      1.571838     -0.312566
  C      -0.670560      0.382228     -0.156325
  C      -2.028431      0.419024      0.158003
  C      -2.654159      1.646807      0.304971
  C      -1.961737      2.842162      0.158213
  H      -0.057031      3.717928     -0.270190
  H       1.089679      1.525200     -0.561225
  H      -2.593687     -0.495351      0.283187
  Cl     -4.363833      1.691502      0.690098
  H      -2.471702      3.787361      0.282576
  C       0.066109     -0.930194     -0.282137
  C       0.100824     -1.737418      0.999874
  H       0.670685     -2.656134      0.866901
  H      -0.898585     -1.985092      1.357337
  H       0.597062     -1.130315      1.758347
  N      -0.543228     -1.730262     -1.425213
  O      -0.937752     -2.867314     -1.218342
  O      -0.566368     -1.196056     -2.525486
  H       1.093585     -0.717158     -0.638463
  O       3.830778     -1.170236      1.257176
  H       3.176019     -1.766406      1.634794
  H       3.431421     -0.833586      0.343312
  H       3.344816     -0.851386     -1.613668
  O       2.917117     -0.310788     -0.939390
25
Coordinates from ORCA-job /home/rudenko/2025/kie/for_orca/m-clc6h4chno2ch3_oh/orca/ts_opt/ts_opt E -1127.294093890852
  C      -0.632155      2.809346     -0.167092
  C       0.025534      1.592792     -0.315423
  C      -0.671181      0.397256     -0.155653
  C      -2.030868      0.423226      0.151842
  C      -2.669492      1.645655      0.286503
  C      -1.988285      2.846742      0.134534
  H      -0.089915      3.738188     -0.289508
  H       1.080172      1.554720     -0.557783
  H      -2.587667     -0.495912      0.280386
  Cl     -4.381765      1.676030      0.661934
  H      -2.508521      3.787634      0.248594
  C       0.076195     -0.909706     -0.269921
  C       0.125835     -1.700357      1.022359
  H       0.693365     -2.621018      0.894883
  H      -0.869881     -1.941640      1.394651
  H       0.633454     -1.084204      1.765467
  N      -0.527966     -1.729380     -1.400532
  O      -0.874674     -2.880854     -1.187346
  O      -0.607616     -1.191159     -2.496159
  H       1.102566     -0.694389     -0.630600
  O       3.793520     -1.283060      1.256777
  H       3.208907     -2.009538      1.495946
  H       3.413739     -0.882724      0.358692
  H       3.360073     -0.774085     -1.591773
  O       2.926625     -0.273561     -0.890777
25
Coordinates from ORCA-job /home/rudenko/2025/kie/for_orca/m-clc6h4chno2ch3_oh/orca/ts_opt/ts_opt E -1127.294143444449
  C      -0.616792      2.801296     -0.155138
  C       0.037202      1.583448     -0.308745
  C      -0.662882      0.389500     -0.153066
  C      -2.022301      0.418344      0.155578
  C      -2.657436      1.642089      0.295061
  C      -1.972748      2.841633      0.147215
  H      -0.071916      3.728964     -0.274618
  H       1.091317      1.543563     -0.553090
  H      -2.581816     -0.499654      0.280478
  Cl     -4.369586      1.675870      0.670605
  H      -2.490178      3.783660      0.264602
  C       0.077440     -0.920744     -0.277124
  C       0.127590     -1.720551      1.008943
  H       0.690510     -2.642936      0.873142
  H      -0.867781     -1.960663      1.382843
  H       0.640260     -1.112392      1.754895
  N      -0.537032     -1.727168     -1.410635
  O      -0.911401     -2.870712     -1.202022
  O      -0.599484     -1.184233     -2.505355
  H       1.102906     -0.708334     -0.643408
  O       3.764965     -1.195649      1.276078
  H       3.153366     -1.884411      1.556080
  H       3.400489     -0.841067      0.353242
  H       3.351698     -0.842559     -1.602909
  O       2.923609     -0.297292     -0.932651
25
Coordinates from ORCA-job /home/rudenko/2025/kie/for_orca/m-clc6h4chno2ch3_oh/orca/ts_opt/ts_opt E -1127.294176213710
  C      -0.622933      2.805210     -0.161662
  C       0.035104      1.589169     -0.312262
  C      -0.660323      0.393378     -0.151193
  C      -2.019293      0.418594      0.160197
  C      -2.658459      1.640479      0.297240
  C      -1.978349      2.841904      0.143583
  H      -0.081553      3.734331     -0.285624
  H       1.088871      1.552514     -0.558487
  H      -2.575145     -0.500953      0.289938
  Cl     -4.369643      1.669407      0.677730
  H      -2.498774      3.782537      0.258880
  C       0.082973     -0.915342     -0.272266
  C       0.131757     -1.713902      1.014552
  H       0.698478     -2.634403      0.881468
  H      -0.863988     -1.957598      1.385224
  H       0.639696     -1.103388      1.761772
  N      -0.526641     -1.723928     -1.406157
  O      -0.896506     -2.869067     -1.198192
  O      -0.575697     -1.186751     -2.504588
  H       1.109375     -0.701716     -0.637340
  O       3.748783     -1.232876      1.269476
  H       3.118846     -1.910867      1.534733
  H       3.397275     -0.858383      0.349998
  H       3.347633     -0.829757     -1.608102
  O       2.928515     -0.288593     -0.928917
25
Coordinates from ORCA-job /home/rudenko/2025/kie/for_orca/m-clc6h4chno2ch3_oh/orca/ts_opt/ts_opt E -1127.294207661515
  C      -0.608584      2.797046     -0.157737
  C       0.045325      1.579855     -0.316609
  C      -0.651572      0.385476     -0.153344
  C      -2.008194      0.413224      0.168624
  C      -2.643406      1.636218      0.314056
  C      -1.961483      2.836340      0.158218
  H      -0.065638      3.725099     -0.282775
  H       1.097263      1.541955     -0.570260
  H      -2.564879     -0.505303      0.301708
  Cl     -4.351137      1.668142      0.709448
  H      -2.478432      3.778014      0.280412
  C       0.086421     -0.925765     -0.280745
  C       0.129450     -1.732057      1.001018
  H       0.698324     -2.651042      0.865189
  H      -0.867613     -1.980667      1.364658
  H       0.631775     -1.125456      1.755195
  N      -0.525207     -1.724267     -1.419987
  O      -0.921075     -2.861381     -1.215927
  O      -0.554648     -1.185442     -2.518728
  H       1.113552     -0.713630     -0.646103
  O       3.707701     -1.157432      1.290154
  H       3.039459     -1.784655      1.584899
  H       3.381646     -0.821184      0.348041
  H       3.340058     -0.886508     -1.616080
  O       2.930893     -0.306581     -0.963325
25
Coordinates from ORCA-job /home/rudenko/2025/kie/for_orca/m-clc6h4chno2ch3_oh/orca/ts_opt/ts_opt E -1127.294221261434
  C      -0.602782      2.793435     -0.157560
  C       0.048373      1.575023     -0.318302
  C      -0.650128      0.381942     -0.152603
  C      -2.005937      0.412144      0.172727
  C      -2.638474      1.636348      0.319832
  C      -1.954640      2.835223      0.162336
  H      -0.058477      3.720447     -0.284445
  H       1.099410      1.535285     -0.575381
  H      -2.564183     -0.505309      0.306403
  Cl     -4.345372      1.671573      0.718502
  H      -2.469473      3.777892      0.285797
  C       0.085755     -0.930235     -0.283103
  C       0.126734     -1.740407      0.996410
  H       0.698486     -2.657562      0.859616
  H      -0.870726     -1.992963      1.355982
  H       0.624386     -1.134532      1.754251
  N      -0.526436     -1.724819     -1.424899
  O      -0.926916     -2.860712     -1.223033
  O      -0.553294     -1.183775     -2.522569
  H       1.112772     -0.717500     -0.647629
  O       3.696988     -1.126611      1.298973
  H       3.027325     -1.750580      1.597226
  H       3.377065     -0.804566      0.349816
  H       3.337918     -0.899958     -1.616820
  O       2.931624     -0.309782     -0.971525
25
Coordinates from ORCA-job /home/rudenko/2025/kie/for_orca/m-clc6h4chno2ch3_oh/orca/ts_opt/ts_opt E -1127.294259830458
  C      -0.595241      2.787708     -0.168815
  C       0.053177      1.567484     -0.326737
  C      -0.644770      0.376319     -0.144901
  C      -1.997566      0.409889      0.192076
  C      -2.627466      1.635915      0.336110
  C      -1.943890      2.832948      0.163687
  H      -0.051397      3.713173     -0.308347
  H       1.101411      1.524782     -0.594729
  H      -2.556059     -0.505983      0.335115
  Cl     -4.330984      1.676080      0.748234
  H      -2.456616      3.777033      0.285156
  C       0.089946     -0.936597     -0.279626
  C       0.120008     -1.758196      0.992728
  H       0.708068     -2.665326      0.857881
  H      -0.879640     -2.029651      1.331425
  H       0.592895     -1.151275      1.765319
  N      -0.517697     -1.719733     -1.432704
  O      -0.951275     -2.844314     -1.236580
  O      -0.509983     -1.179769     -2.530893
  H       1.116769     -0.717840     -0.637088
  O       3.646436     -1.065586      1.319285
  H       3.009895     -1.738970      1.580307
  H       3.353563     -0.765283      0.353679
  H       3.328677     -0.923283     -1.612875
  O       2.941739     -0.299527     -0.987709
25
Coordinates from ORCA-job /home/rudenko/2025/kie/for_orca/m-clc6h4chno2ch3_oh/orca/ts_opt/ts_opt E -1127.294270232978
  C      -0.599006      2.789583     -0.172310
  C       0.050424      1.569705     -0.328837
  C      -0.646384      0.378139     -0.144946
  C      -1.998871      0.411132      0.193366
  C      -2.629736      1.636808      0.336241
  C      -1.947476      2.834150      0.161172
  H      -0.056054      3.715347     -0.313341
  H       1.098701      1.527395     -0.596595
  H      -2.556354     -0.504905      0.338827
  Cl     -4.332832      1.676012      0.750443
  H      -2.460997      3.777933      0.281647
  C       0.089068     -0.934698     -0.278121
  C       0.115683     -1.757323      0.993683
  H       0.703686     -2.664594      0.859326
  H      -0.884962     -2.028657      1.329469
  H       0.587345     -1.151734      1.768050
  N      -0.516371     -1.717583     -1.432670
  O      -0.947033     -2.843489     -1.237675
  O      -0.510969     -1.176104     -2.530136
  H       1.116980     -0.716972     -0.633648
  O       3.656849     -1.072191      1.319723
  H       3.030494     -1.756840      1.576069
  H       3.360619     -0.769586      0.355712
  H       3.330622     -0.921775     -1.612072
  O       2.946573     -0.299752     -0.983381
25
Coordinates from ORCA-job /home/rudenko/2025/kie/for_orca/m-clc6h4chno2ch3_oh/orca/ts_opt/ts_opt E -1127.294279727060
  C      -0.589154      2.784746     -0.160935
  C       0.054669      1.562557     -0.321895
  C      -0.648924      0.373410     -0.147592
  C      -2.002339      0.411222      0.185963
  C      -2.627568      1.639312      0.333190
  C      -1.938733      2.834162      0.167457
  H      -0.041061      3.708605     -0.294372
  H       1.103851      1.516054     -0.585441
  H      -2.565069     -0.502684      0.324561
  Cl     -4.331926      1.684734      0.741575
  H      -2.448101      3.779762      0.291245
  C       0.081397     -0.941793     -0.285351
  C       0.112499     -1.766811      0.984849
  H       0.686644     -2.681497      0.841551
  H      -0.887636     -2.024883      1.332294
  H       0.603000     -1.169897      1.754249
  N      -0.532476     -1.721390     -1.438753
  O      -0.950976     -2.852218     -1.246032
  O      -0.537393     -1.175813     -2.533997
  H       1.107804     -0.728058     -0.644352
  O       3.662312     -1.004363      1.330707
  H       3.075068     -1.717173      1.602837
  H       3.353770     -0.738554      0.359368
  H       3.327083     -0.951632     -1.600817
  O       2.933258     -0.317797     -0.990310
25
Coordinates from ORCA-job /home/rudenko/2025/kie/for_orca/m-clc6h4chno2ch3_oh/orca/ts_opt/ts_opt E -1127.294436698431
  C      -0.575297      2.776698     -0.178896
  C       0.061456      1.551592     -0.344361
  C      -0.641723      0.365390     -0.148398
  C      -1.987875      0.409827      0.212562
  C      -2.606092      1.640862      0.365913
  C      -1.917593      2.832425      0.177535
  H      -0.027523      3.698054     -0.329895
  H       1.105247      1.500168     -0.627263
  H      -2.550919     -0.500782      0.369715
  Cl     -4.300875      1.693820      0.812484
  H      -2.421694      3.780314      0.305364
  C       0.079353     -0.953859     -0.295319
  C       0.094339     -1.801746      0.959755
  H       0.654506     -2.721974      0.799544
  H      -0.910420     -2.050522      1.300080
  H       0.596388     -1.229942      1.740605
  N      -0.527668     -1.712487     -1.469771
  O      -0.927062     -2.854707     -1.305036
  O      -0.551664     -1.137438     -2.549430
  H       1.110382     -0.747090     -0.643243
  O       3.592606     -0.849506      1.383781
  H       3.099789     -1.632252      1.651514
  H       3.314001     -0.666736      0.383014
  H       3.306671     -1.038031     -1.567123
  O       2.931665     -0.352078     -1.003130
25
Coordinates from ORCA-job /home/rudenko/2025/kie/for_orca/m-clc6h4chno2ch3_oh/orca/ts_opt/ts_opt E -1127.294330855258
  C      -0.613449      2.796263     -0.222917
  C       0.043137      1.579480     -0.372352
  C      -0.634901      0.385526     -0.140281
  C      -1.976648      0.413990      0.239635
  C      -2.615003      1.636538      0.376865
  C      -1.950941      2.835861      0.153160
  H      -0.084652      3.723743     -0.401495
  H       1.083649      1.541798     -0.669080
  H      -2.520904     -0.502925      0.423120
  Cl     -4.303974      1.668398      0.847092
  H      -2.469878      3.777255      0.269062
  C       0.103046     -0.925935     -0.271243
  C       0.104346     -1.770357      0.986212
  H       0.691390     -2.676940      0.844345
  H      -0.902359     -2.045019      1.299533
  H       0.568850     -1.183887      1.779224
  N      -0.476636     -1.693652     -1.452196
  O      -0.879372     -2.834911     -1.288746
  O      -0.476412     -1.126080     -2.536375
  H       1.138636     -0.711559     -0.605836
  O       3.559294     -1.042548      1.371605
  H       3.016490     -1.818139      1.547523
  H       3.322293     -0.757380      0.386021
  H       3.301367     -0.967107     -1.589483
  O       2.972629     -0.302413     -0.973393
25
Coordinates from ORCA-job /home/rudenko/2025/kie/for_orca/m-clc6h4chno2ch3_oh/orca/ts_opt/ts_opt E -1127.294341864623
  C      -0.612669      2.795366     -0.216321
  C       0.040842      1.577206     -0.368553
  C      -0.641381      0.384252     -0.143459
  C      -1.984533      0.415130      0.231315
  C      -2.619837      1.638985      0.370819
  C      -1.951299      2.837362      0.155081
  H      -0.080475      3.721987     -0.389211
  H       1.081868      1.537770     -0.663114
  H      -2.532196     -0.501041      0.408512
  Cl     -4.310704      1.674105      0.833678
  H      -2.467662      3.779848      0.273630
  C       0.094913     -0.927896     -0.275435
  C       0.099181     -1.768485      0.984773
  H       0.686274     -2.675322      0.845118
  H      -0.906886     -2.042291      1.301456
  H       0.563839     -1.178065      1.774649
  N      -0.488885     -1.698437     -1.451856
  O      -0.879069     -2.843784     -1.286563
  O      -0.504054     -1.128895     -2.534777
  H       1.130668     -0.714635     -0.612041
  O       3.605213     -1.050281      1.366912
  H       3.046643     -1.808726      1.565661
  H       3.345442     -0.762808      0.387550
  H       3.313111     -0.955960     -1.591036
  O       2.971658     -0.305382     -0.966789
25
Coordinates from ORCA-job /home/rudenko/2025/kie/for_orca/m-clc6h4chno2ch3_oh/orca/ts_opt/ts_opt E -1127.294360932768
  C      -0.605249      2.791683     -0.212269
  C       0.044366      1.571969     -0.368539
  C      -0.641095      0.380391     -0.145873
  C      -1.983685      0.414310      0.230598
  C      -2.615135      1.639692      0.374166
  C      -1.943281      2.836673      0.160853
  H      -0.070433      3.717150     -0.383245
  H       1.084936      1.530391     -0.664421
  H      -2.533977     -0.500652      0.405986
  Cl     -4.305307      1.678684      0.839240
  H      -2.456582      3.780394      0.282813
  C       0.091596     -0.933214     -0.281691
  C       0.097952     -1.775784      0.977231
  H       0.680977     -2.684581      0.833845
  H      -0.907759     -2.046078      1.298091
  H       0.568251     -1.188107      1.765892
  N      -0.495321     -1.701097     -1.458421
  O      -0.874367     -2.850742     -1.297233
  O      -0.521373     -1.125902     -2.538112
  H       1.127174     -0.721592     -0.619479
  O       3.598238     -1.008188      1.376517
  H       3.049609     -1.770288      1.588857
  H       3.337632     -0.743266      0.391208
  H       3.309017     -0.975948     -1.584046
  O       2.963819     -0.315899     -0.971967
25
Coordinates from ORCA-job /home/rudenko/2025/kie/for_orca/m-clc6h4chno2ch3_oh/orca/ts_opt/ts_opt E -1127.294375027015
  C      -0.605772      2.792666     -0.213614
  C       0.042621      1.572685     -0.373547
  C      -0.642934      0.381119     -0.151224
  C      -1.984640      0.415593      0.228559
  C      -2.614932      1.641060      0.375688
  C      -1.942762      2.838031      0.162934
  H      -0.070596      3.717989     -0.384251
  H       1.082493      1.531488     -0.671936
  H      -2.535174     -0.499345      0.403585
  Cl     -4.303982      1.680509      0.844780
  H      -2.454861      3.781953      0.288371
  C       0.088632     -0.932580     -0.288749
  C       0.101517     -1.771549      0.972954
  H       0.687994     -2.678269      0.831736
  H      -0.902321     -2.044751      1.297649
  H       0.570125     -1.178271      1.758558
  N      -0.499423     -1.704125     -1.461468
  O      -0.839012     -2.866784     -1.305793
  O      -0.562380     -1.119480     -2.534597
  H       1.124398     -0.722986     -0.628363
  O       3.611858     -1.023844      1.380238
  H       3.040665     -1.764954      1.607073
  H       3.342411     -0.754241      0.399309
  H       3.309008     -0.971385     -1.577967
  O       2.957067     -0.320528     -0.959926
25
Coordinates from ORCA-job /home/rudenko/2025/kie/for_orca/m-clc6h4chno2ch3_oh/orca/ts_opt/ts_opt E -1127.294399241670
  C      -0.605878      2.793645     -0.220686
  C       0.041741      1.573428     -0.382421
  C      -0.641710      0.382058     -0.153178
  C      -1.980955      0.417453      0.235551
  C      -2.610696      1.642927      0.384511
  C      -1.940271      2.839660      0.164850
  H      -0.072038      3.718649     -0.397166
  H       1.079757      1.532590     -0.687047
  H      -2.530481     -0.497186      0.415203
  Cl     -4.296847      1.682833      0.864469
  H      -2.451696      3.783769      0.291663
  C       0.086866     -0.932365     -0.293771
  C       0.099322     -1.774860      0.965917
  H       0.691091     -2.677952      0.824833
  H      -0.904339     -2.054400      1.286341
  H       0.561326     -1.181004      1.754855
  N      -0.497294     -1.701521     -1.468564
  O      -0.782376     -2.881063     -1.330530
  O      -0.607228     -1.099342     -2.528251
  H       1.126075     -0.726586     -0.632412
  O       3.609344     -1.015209      1.393287
  H       3.030087     -1.747087      1.629016
  H       3.342397     -0.755401      0.409505
  H       3.297968     -0.990573     -1.570959
  O       2.955836     -0.332465     -0.955017
25
Coordinates from ORCA-job /home/rudenko/2025/kie/for_orca/m-clc6h4chno2ch3_oh/orca/ts_opt/ts_opt E -1127.294412223419
  C      -0.607486      2.796738     -0.226137
  C       0.041586      1.577056     -0.386119
  C      -0.639165      0.385182     -0.152146
  C      -1.977447      0.419985      0.240208
  C      -2.608845      1.644714      0.387380
  C      -1.940974      2.841921      0.162526
  H      -0.075563      3.721979     -0.407085
  H       1.078671      1.537661     -0.693920
  H      -2.525456     -0.494958      0.422791
  Cl     -4.294093      1.683081      0.871013
  H      -2.453626      3.785585      0.287554
  C       0.087520     -0.929342     -0.293876
  C       0.100866     -1.774676      0.964277
  H       0.701162     -2.672072      0.824452
  H      -0.902132     -2.064080      1.278378
  H       0.553025     -1.178842      1.757412
  N      -0.491417     -1.697224     -1.470471
  O      -0.712177     -2.892930     -1.354034
  O      -0.657661     -1.078329     -2.513107
  H       1.129117     -0.726888     -0.631636
  O       3.608447     -1.024250      1.397221
  H       3.019382     -1.746510      1.638540
  H       3.340952     -0.765879      0.414348
  H       3.275395     -1.006380     -1.567675
  O       2.949919     -0.341544     -0.949894
25
Coordinates from ORCA-job /home/rudenko/2025/kie/for_orca/m-clc6h4chno2ch3_oh/orca/ts_opt/ts_opt E -1127.294412253944
  C      -0.606807      2.799953     -0.222256
  C       0.043027      1.580227     -0.378796
  C      -0.639110      0.388329     -0.149936
  C      -1.979230      0.423374      0.236100
  C      -2.611575      1.647903      0.379521
  C      -1.942664      2.845216      0.158126
  H      -0.073828      3.725128     -0.400411
  H       1.081535      1.541193     -0.681833
  H      -2.528431     -0.491698      0.414551
  Cl     -4.299971      1.685928      0.852376
  H      -2.456304      3.788824      0.279317
  C       0.085009     -0.926369     -0.292531
  C       0.103676     -1.772049      0.965905
  H       0.712553     -2.663622      0.827271
  H      -0.897673     -2.071143      1.277002
  H       0.548019     -1.172761      1.760834
  N      -0.492289     -1.695752     -1.467396
  O      -0.634486     -2.905580     -1.375365
  O      -0.731782     -1.064644     -2.488433
  H       1.128996     -0.726623     -0.631711
  O       3.627757     -1.038799      1.392081
  H       3.030307     -1.749294      1.647344
  H       3.347116     -0.779470      0.413840
  H       3.247274     -1.018819     -1.568675
  O       2.938882     -0.349454     -0.946927
25
Coordinates from ORCA-job /home/rudenko/2025/kie/for_orca/m-clc6h4chno2ch3_oh/orca/ts_opt/ts_opt E -1127.294417961698
  C      -0.605917      2.800309     -0.218337
  C       0.042996      1.580131     -0.375364
  C      -0.641397      0.388567     -0.151725
  C      -1.982597      0.424231      0.230522
  C      -2.613838      1.649213      0.374769
  C      -1.942924      2.846261      0.157831
  H      -0.071221      3.725273     -0.392414
  H       1.082567      1.540228     -0.674743
  H      -2.532938     -0.490673      0.406422
  Cl     -4.303306      1.688305      0.843679
  H      -2.455891      3.790184      0.279466
  C       0.083507     -0.925800     -0.292224
  C       0.103514     -1.768556      0.968362
  H       0.714100     -2.659313      0.831940
  H      -0.897528     -2.068622      1.279643
  H       0.546647     -1.166816      1.762119
  N      -0.491894     -1.699557     -1.465225
  O      -0.620832     -2.910849     -1.372249
  O      -0.742218     -1.071884     -2.486003
  H       1.127414     -0.724597     -0.630739
  O       3.636528     -1.047478      1.386180
  H       3.039415     -1.757791      1.642769
  H       3.349613     -0.783058      0.411471
  H       3.241384     -1.012401     -1.570635
  O       2.934816     -0.345309     -0.945515
25
Coordinates from ORCA-job /home/rudenko/2025/kie/for_orca/m-clc6h4chno2ch3_oh/orca/ts_opt/ts_opt E -1127.294423993192
  C      -0.601499      2.799554     -0.209624
  C       0.044711      1.577875     -0.366593
  C      -0.645036      0.387630     -0.152448
  C      -1.988672      0.425798      0.220944
  C      -2.616872      1.652227      0.365567
  C      -1.940881      2.848091      0.157496
  H      -0.062862      3.723550     -0.376558
  H       1.086293      1.534955     -0.658697
  H      -2.542459     -0.488277      0.390375
  Cl     -4.309187      1.695083      0.823959
  H      -2.452035      3.793056      0.278687
  C       0.080184     -0.926435     -0.290095
  C       0.100755     -1.765960      0.973027
  H       0.713870     -2.655353      0.839779
  H      -0.900333     -2.067365      1.283138
  H       0.541641     -1.161460      1.765900
  N      -0.489589     -1.705474     -1.461535
  O      -0.583318     -2.920642     -1.374289
  O      -0.768740     -1.080075     -2.476367
  H       1.124823     -0.721908     -0.626338
  O       3.650578     -1.048392      1.375887
  H       3.062107     -1.764901      1.635273
  H       3.352490     -0.782239      0.405661
  H       3.219232     -1.010108     -1.575064
  O       2.924800     -0.339229     -0.948085
25
Coordinates from ORCA-job /home/rudenko/2025/kie/for_orca/m-clc6h4chno2ch3_oh/orca/ts_opt/ts_opt E -1127.294427525265
  C      -0.600688      2.799315     -0.208592
  C       0.045405      1.577580     -0.365704
  C      -0.644703      0.387308     -0.152525
  C      -1.988460      0.425596      0.220360
  C      -2.616476      1.652077      0.365248
  C      -1.940232      2.847910      0.157913
  H      -0.061822      3.723311     -0.374816
  H       1.087146      1.534431     -0.657195
  H      -2.542415     -0.488461      0.389304
  Cl     -4.308884      1.695095      0.823318
  H      -2.451249      3.792900      0.279528
  C       0.080745     -0.926817     -0.289625
  C       0.100386     -1.765800      0.973873
  H       0.712834     -2.655743      0.841290
  H      -0.901055     -2.066145      1.283879
  H       0.541555     -1.161159      1.766499
  N      -0.487208     -1.706086     -1.461418
  O      -0.579056     -2.921528     -1.375098
  O      -0.766073     -1.080432     -2.476109
  H       1.125503     -0.721909     -0.625306
  O       3.647000     -1.045251      1.374800
  H       3.060136     -1.763507      1.633054
  H       3.350207     -0.780480      0.404051
  H       3.214180     -1.012999     -1.576104
  O       2.923223     -0.339205     -0.950627
25
Coordinates from ORCA-job /home/rudenko/2025/kie/for_orca/m-clc6h4chno2ch3_oh/orca/ts_opt/ts_opt E -1127.294430474276
  C      -0.599928      2.798948     -0.207133
  C       0.046043      1.577167     -0.364345
  C      -0.644454      0.386919     -0.152180
  C      -1.988487      0.425295      0.219648
  C      -2.616386      1.651832      0.364585
  C      -1.939749      2.847626      0.158370
  H      -0.060774      3.722923     -0.372538
  H       1.087973      1.533868     -0.655143
  H      -2.542764     -0.488739      0.387657
  Cl     -4.309174      1.694977      0.821249
  H      -2.450675      3.792652      0.280083
  C       0.080949     -0.927303     -0.289252
  C       0.100171     -1.766079      0.974376
  H       0.711716     -2.656659      0.841861
  H      -0.901475     -2.065341      1.284762
  H       0.542061     -1.161593      1.766720
  N      -0.486734     -1.706337     -1.461136
  O      -0.581054     -2.921564     -1.374327
  O      -0.763045     -1.080607     -2.476474
  H       1.125728     -0.722291     -0.624994
  O       3.645868     -1.041794      1.373812
  H       3.059565     -1.760368      1.632453
  H       3.349576     -0.778623      0.402499
  H       3.212347     -1.015219     -1.577385
  O       2.922702     -0.339691     -0.953169
25
Coordinates from ORCA-job /home/rudenko/2025/kie/for_orca/m-clc6h4chno2ch3_oh/orca/ts_opt/ts_opt E -1127.294432714529
  C      -0.599155      2.798688     -0.205312
  C       0.046682      1.576819     -0.362362
  C      -0.644443      0.386643     -0.151772
  C      -1.988936      0.425148      0.218314
  C      -2.616678      1.651782      0.363091
  C      -1.939450      2.847510      0.158439
  H      -0.059554      3.722618     -0.369517
  H       1.088950      1.533263     -0.651934
  H      -2.543653     -0.488856      0.385054
  Cl     -4.310065      1.695154      0.817499
  H      -2.450302      3.792596      0.279997
  C       0.081041     -0.927576     -0.288575
  C       0.100167     -1.765868      0.975381
  H       0.711249     -2.656810      0.843159
  H      -0.901592     -2.064451      1.286074
  H       0.542451     -1.161207      1.767376
  N      -0.486186     -1.706875     -1.460292
  O      -0.580638     -2.922085     -1.373167
  O      -0.762025     -1.081438     -2.475953
  H       1.125788     -0.722146     -0.624278
  O       3.646081     -1.040688      1.371733
  H       3.060064     -1.759385      1.630688
  H       3.349344     -0.777775      0.400604
  H       3.209343     -1.015846     -1.579060
  O       2.921519     -0.339215     -0.955187
