!  NUMFREQ B3LYP def2-TZVP CPCM D3 
%pal nprocs 102 end
%cpcm epsilon 78.4 end 
*xyz 0 2 
C   -0.80964770706359 0.54247280019439 0.86507697686808
C   0.45240604522728 0.88234729797537 1.34255991163073
C   1.55617065502628 0.07318068469352 1.07395139383753
C   1.39382626093555 -1.07691417182265 0.30970995218422
C   0.12899376918857 -1.39041974285126 -0.16410431720046
C   -0.98393743735359 -0.60254750104181 0.10313885782892
H   -1.65924843667344 1.17468705487395 1.08485453681655
H   0.58980874304343 1.78072022801115 1.93069450352152
H   2.22764790544236 -1.72196446005153 0.07761379989804
H   -1.95362417192967 -0.88158309103552 -0.27955689530787
N   -0.03602421108992 -2.60073378888749 -0.97790207095785
O   -1.16119622902068 -2.88720503308164 -1.36552363861398
O   0.9578058037732 -3.26897043219216 -1.23218632874871
C   2.91189500868049 0.45237451023558 1.62488630049071
C   3.5946316564845 -0.63239149448858 2.43162257668665
H   4.56838028586139 -0.29389788369555 2.7839196164227
H   3.72193211030634 -1.54970461381742 1.86024272400379
H   2.96733325170434 -0.84538058038653 3.29804468943435
N   3.77873310160417 0.88444973889506 0.43455939413224
O   3.54139960999298 1.98199394748111 -0.04363056138516
O   4.63284385957967 0.12364011999619 0.01596098125862
H   2.81130311868858 1.37045765227886 2.20221379082832
C   6.68360672407149 3.49814706632981 5.26902218305535
N   7.50171675671424 3.03330353616702 4.24693068448434
C   7.1329147645429 3.39415352789182 2.87868758985609
C   5.64189766953409 3.16185178480313 2.6675420497826
N   4.81592081426386 3.83914675474531 3.67805355631953
C   5.21115867699826 3.40620180517325 5.03364575687377
H   7.07029651867437 3.37584092821926 6.27342494617531
H   8.49145497911468 3.1119127995191 4.43287043552417
H   7.71130604217841 2.78395758805911 2.18332178305248
H   7.36294560277131 4.45033362950797 2.6772590344181
H   5.34867778028929 3.50575929805496 1.67566449554966
H   5.42785816743892 2.09205678471477 2.73162848017809
H   4.9679190105692 4.84220779373307 3.60201191379011
H   4.66762553526015 4.00058170376884 5.76887593222174
H   4.85693229352207 2.36691230906867 5.13840241888428
H   1.91948398649741 2.70426981359704 4.15527847514571
H   3.1017600961775 3.45882753425359 3.47192835869056
O   2.14251159897304 3.19774408110998 3.35712570236867
*
