27
Coordinates from ORCA-job /home/rudenko/2025/kie/for_orca/ch32chno2_pyridine/orca/ts_opt/ts_opt
  C   -2.88524878861221      1.49667139393031     -0.12755197851663
  H   -2.25470009091318      1.85086579526088     -0.94136622262764
  N   -1.85553812264594     -0.72970390817378     -0.13792070450745
  O   -1.65803194072779     -0.58494466259569     -1.36433045816974
  O   -1.61853899709481     -1.83172746927119      0.41144707411276
  H   -3.07409919019433      0.91785822555990      2.53075703522893
  C   -2.22926171668230      0.37709415408206      0.65094868324299
  H   -0.98160153407386      0.83409190247931      0.99083216293752
  H   -3.84830846985171      1.19179605010233     -0.55348066475964
  C   -2.88651774879334      0.00515023146917      1.96372871327898
  H   -3.84711862478590     -0.50024902706815      1.81159134741573
  C   2.87345305079437      0.70879185642655     -0.66204244574462
  C   3.77821700345316      0.08684070659306     -1.50018791710639
  C   3.57082031591105     -1.24672871832601     -1.83680519413556
  C   2.46570225947432     -1.92033978406820     -1.32871435177842
  C   1.59617279616684     -1.24333020283117     -0.49506733526550
  N   1.81691946057715      0.04035674604801     -0.18420050815278
  H   4.62638386135055      0.63822002442899     -1.87940238180210
  H   4.26507279647242     -1.75685667898649     -2.49140520761896
  H   2.27612902005010     -2.95540102225791     -1.57362635580582
  H   -3.06740967400746      2.33247561235410      0.54916827875879
  H   -2.25443720647098     -0.64464554441570      2.56626002839854
  H   0.71078943285249     -1.69544986583902     -0.06884327321557
  H   2.96604354950192      1.74128239066339     -0.35557186056312
  H   0.27061399293006      1.04222018016320      2.23004868046579
  H   1.09378601391188      0.57208038957292      0.49570035523394
  O   0.15070855140746      1.27358122469912      1.30003450069594
