27
Coordinates from ORCA-job /home/rudenko/2025/kie/for_orca/ch32chno2_pyridine/orca/ts_opt/ts_opt E -648.295760046294
  C      -2.887138      1.493410     -0.128184
  H      -2.248434      1.857102     -0.931556
  N      -1.851692     -0.729523     -0.129435
  O      -1.651315     -0.586568     -1.355590
  O      -1.613650     -1.829747      0.422959
  H      -3.083296      0.922527      2.530393
  C      -2.229262      0.378516      0.655970
  H      -0.981056      0.838658      0.990859
  H      -3.840281      1.180165     -0.569858
  C      -2.883101      0.007983      1.970778
  H      -3.836225     -0.512789      1.823768
  C       2.888499      0.703459     -0.663117
  C       3.784998      0.071216     -1.502392
  C       3.559690     -1.258660     -1.842186
  C       2.445640     -1.918458     -1.335606
  C       1.585216     -1.231857     -0.500390
  N       1.822910      0.048134     -0.186838
  H       4.640681      0.611886     -1.880130
  H       4.246957     -1.776568     -2.498039
  H       2.242016     -2.950306     -1.582777
  H      -3.087520      2.324906      0.548580
  H      -2.241704     -0.627893      2.578519
  H       0.694562     -1.674113     -0.074910
  H       2.994970      1.733980     -0.354581
  H       0.271450      1.056195      2.226654
  H       1.105749      0.586261      0.491794
  O       0.151334      1.282084      1.295317
27
Coordinates from ORCA-job /home/rudenko/2025/kie/for_orca/ch32chno2_pyridine/orca/ts_opt/ts_opt E -648.295584430066
  C      -2.958718      1.542021     -0.054003
  H      -2.365619      1.977904     -0.856415
  N      -1.857790     -0.640862     -0.244229
  O      -1.713227     -0.411747     -1.465174
  O      -1.564713     -1.766680      0.223718
  H      -3.026532      0.792582      2.566376
  C      -2.235465      0.400518      0.627506
  H      -0.989014      0.878880      0.942808
  H      -3.919758      1.227065     -0.476912
  C      -2.822622     -0.076351      1.939458
  H      -3.765113     -0.616954      1.795625
  C       2.876818      0.695120     -0.705217
  C       3.780455      0.032262     -1.512587
  C       3.575814     -1.317795     -1.777639
  C       2.474684     -1.966695     -1.230356
  C       1.606114     -1.249165     -0.430304
  N       1.823887      0.049846     -0.188783
  H       4.625688      0.565141     -1.923463
  H       4.269093     -1.859822     -2.407143
  H       2.287235     -3.013792     -1.419340
  H      -3.155321      2.320738      0.683902
  H      -2.137945     -0.729580      2.477599
  H       0.724513     -1.681726      0.023071
  H       2.967430      1.742663     -0.454335
  H       0.258662      1.154497      2.172017
  H       1.100712      0.612933      0.462475
  O       0.140731      1.338999      1.231343
27
Coordinates from ORCA-job /home/rudenko/2025/kie/for_orca/ch32chno2_pyridine/orca/ts_opt/ts_opt E -648.294944261546
  C      -3.043884      1.574797      0.011549
  H      -2.502836      1.985038     -0.839227
  N      -2.056403     -0.647993     -0.265778
  O      -2.005425     -0.424734     -1.495369
  O      -1.853348     -1.804363      0.177128
  H      -2.923437      0.812683      2.633052
  C      -2.310390      0.406736      0.633647
  H      -1.026941      0.860366      0.854741
  H      -4.048269      1.296581     -0.328342
  C      -2.803860     -0.058461      1.987821
  H      -3.773829     -0.564329      1.919972
  C       2.939527      0.679503     -0.702285
  C       3.898307      0.026062     -1.451327
  C       3.726628     -1.326811     -1.724380
  C       2.601935     -1.987362     -1.243018
  C       1.678531     -1.278934     -0.497463
  N       1.866176      0.022403     -0.245566
  H       4.759716      0.568810     -1.812732
  H       4.462392     -1.860968     -2.310918
  H       2.435920     -3.035647     -1.444799
  H      -3.148431      2.360679      0.760517
  H      -2.101061     -0.740069      2.464285
  H       0.765357     -1.712974     -0.114834
  H       3.001879      1.728923     -0.450782
  H       0.243520      1.203836      2.036139
  H       1.101485      0.584403      0.360642
  O       0.116740      1.331825      1.087328
27
Coordinates from ORCA-job /home/rudenko/2025/kie/for_orca/ch32chno2_pyridine/orca/ts_opt/ts_opt E -648.295655435429
  C      -2.962338      1.542499     -0.054804
  H      -2.370215      1.949936     -0.872602
  N      -1.915244     -0.668033     -0.221393
  O      -1.771219     -0.461467     -1.446461
  O      -1.665255     -1.798467      0.260649
  H      -3.015596      0.837588      2.578180
  C      -2.256350      0.396615      0.637149
  H      -0.997958      0.859006      0.932294
  H      -3.935926      1.242085     -0.459205
  C      -2.838906     -0.045676      1.963097
  H      -3.795069     -0.566629      1.838206
  C       2.895094      0.693031     -0.694182
  C       3.814434      0.043225     -1.494307
  C       3.617844     -1.303524     -1.781239
  C       2.508563     -1.962087     -1.262662
  C       1.624259     -1.257344     -0.468391
  N       1.834921      0.038439     -0.204953
  H       4.665366      0.583622     -1.883001
  H       4.323383     -1.835253     -2.405875
  H       2.326401     -3.006611     -1.470080
  H      -3.131266      2.338328      0.671608
  H      -2.163293     -0.706115      2.503961
  H       0.732633     -1.695570     -0.041036
  H       2.978677      1.737270     -0.427619
  H       0.259281      1.138285      2.151365
  H       1.100618      0.592227      0.441622
  O       0.137160      1.314620      1.209681
27
Coordinates from ORCA-job /home/rudenko/2025/kie/for_orca/ch32chno2_pyridine/orca/ts_opt/ts_opt E -648.295490620466
  C      -2.896579      1.453215     -0.142012
  H      -2.268961      1.819113     -0.953063
  N      -1.798524     -0.739946     -0.108159
  O      -1.606328     -0.612022     -1.337383
  O      -1.542795     -1.828344      0.459434
  H      -3.078167      0.918387      2.525288
  C      -2.209593      0.368469      0.659371
  H      -0.975660      0.864646      0.985651
  H      -3.842328      1.108145     -0.575701
  C      -2.855523      0.001065      1.978898
  H      -3.795773     -0.544159      1.838060
  C       2.918082      0.689893     -0.617740
  C       3.808587      0.040269     -1.450097
  C       3.531498     -1.266959     -1.836377
  C       2.372896     -1.887363     -1.382458
  C       1.520993     -1.185027     -0.551647
  N       1.809640      0.072207     -0.192038
  H       4.699329      0.550415     -1.787043
  H       4.212938     -1.797620     -2.488089
  H       2.128401     -2.900442     -1.667290
  H      -3.116732      2.290798      0.520943
  H      -2.200053     -0.610915      2.596180
  H       0.596953     -1.595563     -0.166829
  H       3.063035      1.704858     -0.275204
  H       0.277711      1.132298      2.211087
  H       1.097824      0.623034      0.481299
  O       0.149129      1.331551      1.274918
27
Coordinates from ORCA-job /home/rudenko/2025/kie/for_orca/ch32chno2_pyridine/orca/ts_opt/ts_opt E -648.295165369787
  C      -2.965509      1.430468     -0.130647
  H      -2.369189      1.716934     -0.995379
  N      -1.986188     -0.811918     -0.034717
  O      -1.806599     -0.745403     -1.270561
  O      -1.722951     -1.872996      0.579506
  H      -3.020130      1.046212      2.570184
  C      -2.288552      0.355948      0.692454
  H      -1.014568      0.821099      0.931727
  H      -3.951290      1.112491     -0.489724
  C      -2.875312      0.091521      2.062739
  H      -3.848135     -0.409688      2.002300
  C       2.992723      0.660817     -0.564305
  C       3.934650      0.038365     -1.359803
  C       3.666949     -1.240033     -1.837636
  C       2.466351     -1.859027     -1.508963
  C       1.562846     -1.184090     -0.710344
  N       1.842682      0.046296     -0.260782
  H       4.857472      0.547113     -1.598134
  H       4.388918     -1.749776     -2.461838
  H       2.229277     -2.851339     -1.864517
  H      -3.103899      2.313858      0.493843
  H      -2.217412     -0.522070      2.675543
  H       0.608087     -1.598608     -0.418637
  H       3.127947      1.652746     -0.156447
  H       0.272499      1.132225      2.104127
  H       1.094200      0.583049      0.386305
  O       0.125133      1.295807      1.163707
27
Coordinates from ORCA-job /home/rudenko/2025/kie/for_orca/ch32chno2_pyridine/orca/ts_opt/ts_opt E -648.295117315336
  C      -2.914177      1.384975     -0.180872
  H      -2.287700      1.619461     -1.040066
  N      -1.967406     -0.863729      0.059781
  O      -1.843741     -0.886189     -1.185369
  O      -1.775335     -1.907146      0.728722
  H      -3.057689      1.145116      2.530590
  C      -2.278991      0.344093      0.716298
  H      -1.005861      0.794443      0.970523
  H      -3.893618      1.063743     -0.553705
  C      -2.914315      0.162800      2.078838
  H      -3.894311     -0.323525      2.013434
  C       3.003929      0.651902     -0.524198
  C       3.943992      0.056044     -1.342068
  C       3.661311     -1.191996     -1.886934
  C       2.449531     -1.809258     -1.598122
  C       1.548783     -1.162140     -0.773692
  N       1.840668      0.042149     -0.264377
  H       4.876682      0.561729     -1.545955
  H       4.381385     -1.680893     -2.529786
  H       2.202776     -2.780689     -2.001701
  H      -3.057679      2.300766      0.393888
  H      -2.287880     -0.428476      2.744345
  H       0.593867     -1.586269     -0.497637
  H       3.150070      1.619708     -0.065356
  H       0.294679      1.063371      2.142815
  H       1.095386      0.558594      0.401722
  O       0.135643      1.251417      1.208880
27
Coordinates from ORCA-job /home/rudenko/2025/kie/for_orca/ch32chno2_pyridine/orca/ts_opt/ts_opt E -648.295538797798
  C      -2.937345      1.420154     -0.147100
  H      -2.328523      1.713602     -1.000724
  N      -1.925214     -0.809838     -0.028786
  O      -1.772779     -0.755980     -1.269676
  O      -1.681363     -1.873724      0.588236
  H      -3.038220      1.041464      2.551756
  C      -2.262098      0.355031      0.690109
  H      -1.002122      0.829305      0.949709
  H      -3.912139      1.089711     -0.524292
  C      -2.872625      0.087424      2.049702
  H      -3.838688     -0.424508      1.972210
  C       2.979723      0.663773     -0.557795
  C       3.910661      0.038590     -1.364200
  C       3.630279     -1.235985     -1.845397
  C       2.429166     -1.849481     -1.507401
  C       1.538152     -1.172733     -0.696535
  N       1.828817      0.054893     -0.247075
  H       4.834530      0.542521     -1.608565
  H       4.342917     -1.747306     -2.478981
  H       2.182650     -2.839012     -1.864357
  H      -3.098958      2.302230      0.473725
  H      -2.219871     -0.517244      2.676890
  H       0.585987     -1.584766     -0.392704
  H       3.124325      1.653146     -0.147021
  H       0.281207      1.127314      2.129579
  H       1.090070      0.591146      0.407465
  O       0.131459      1.300273      1.191225
27
Coordinates from ORCA-job /home/rudenko/2025/kie/for_orca/ch32chno2_pyridine/orca/ts_opt/ts_opt E -648.295655281906
  C      -2.995117      1.467027     -0.081402
  H      -2.426535      1.836796     -0.933126
  N      -1.904433     -0.729426     -0.147232
  O      -1.791175     -0.587250     -1.384983
  O      -1.623664     -1.828180      0.387570
  H      -2.989720      0.905335      2.587508
  C      -2.255453      0.373224      0.659221
  H      -1.006956      0.876193      0.906170
  H      -3.971468      1.128443     -0.447163
  C      -2.808073     -0.006428      2.016877
  H      -3.757366     -0.548428      1.937302
  C       2.965113      0.669328     -0.601242
  C       3.895530      0.008307     -1.379180
  C       3.627157     -1.296558     -1.779404
  C       2.436391     -1.902734     -1.394587
  C       1.543886     -1.188524     -0.618179
  N       1.824842      0.066245     -0.243400
  H       4.810570      0.507710     -1.662982
  H       4.340869     -1.836638     -2.387370
  H       2.199446     -2.914947     -1.688797
  H      -3.163413      2.300013      0.602295
  H      -2.112355     -0.626205      2.579686
  H       0.596951     -1.589959     -0.283452
  H       3.101659      1.682848     -0.250965
  H       0.259142      1.233792      2.082423
  H       1.084597      0.630606      0.388128
  O       0.119576      1.369409      1.136284
27
Coordinates from ORCA-job /home/rudenko/2025/kie/for_orca/ch32chno2_pyridine/orca/ts_opt/ts_opt E -648.295630068813
  C      -3.027139      1.467885     -0.058183
  H      -2.482049      1.855486     -0.917029
  N      -1.905557     -0.709950     -0.177606
  O      -1.801676     -0.542935     -1.412879
  O      -1.593523     -1.810802      0.335826
  H      -2.958895      0.866823      2.602330
  C      -2.256993      0.374808      0.651838
  H      -1.011323      0.896559      0.880104
  H      -4.006734      1.120680     -0.406673
  C      -2.776591     -0.033466      2.014064
  H      -3.719865     -0.587322      1.945172
  C       2.972936      0.663045     -0.596893
  C       3.907234     -0.013858     -1.356334
  C       3.630131     -1.318357     -1.751544
  C       2.427524     -1.908842     -1.379272
  C       1.532505     -1.180066     -0.619462
  N       1.821519      0.074636     -0.250440
  H       4.831340      0.473753     -1.631124
  H       4.346032     -1.870061     -2.346367
  H       2.183285     -2.920142     -1.670669
  H      -3.191128      2.289802      0.639720
  H      -2.061167     -0.652241      2.552969
  H       0.576749     -1.569560     -0.294178
  H       3.115304      1.677733     -0.252382
  H       0.255557      1.298534      2.041308
  H       1.079420      0.651551      0.365664
  O       0.113103      1.406308      1.092043
27
Coordinates from ORCA-job /home/rudenko/2025/kie/for_orca/ch32chno2_pyridine/orca/ts_opt/ts_opt E -648.295474301597
  C      -3.102888      1.486592      0.003105
  H      -2.612392      1.871054     -0.889120
  N      -2.012816     -0.700353     -0.205140
  O      -1.975935     -0.523132     -1.442810
  O      -1.714205     -1.818885      0.279121
  H      -2.871075      0.859184      2.649124
  C      -2.299582      0.380153      0.653934
  H      -1.041497      0.901043      0.806921
  H      -4.108312      1.152785     -0.278341
  C      -2.737063     -0.036957      2.041768
  H      -3.689229     -0.579511      2.027218
  C       3.006902      0.644709     -0.581956
  C       3.978657     -0.035071     -1.289993
  C       3.719309     -1.338636     -1.699509
  C       2.496738     -1.925143     -1.391802
  C       1.564359     -1.194085     -0.680387
  N       1.836875      0.059963     -0.296373
  H       4.917574      0.449866     -1.514841
  H       4.464285     -1.892302     -2.255546
  H       2.265143     -2.935507     -1.696541
  H      -3.208460      2.306709      0.714230
  H      -1.996388     -0.669530      2.527993
  H       0.592003     -1.581983     -0.406244
  H       3.133552      1.659310     -0.231041
  H       0.240865      1.387614      1.914468
  H       1.067485      0.644755      0.279982
  O       0.086096      1.427357      0.961781
27
Coordinates from ORCA-job /home/rudenko/2025/kie/for_orca/ch32chno2_pyridine/orca/ts_opt/ts_opt E -648.295469848556
  C      -3.155531      1.471063      0.049761
  H      -2.719855      1.898098     -0.851517
  N      -1.978718     -0.657670     -0.268333
  O      -1.973631     -0.432999     -1.498835
  O      -1.603802     -1.772328      0.168736
  H      -2.795772      0.774693      2.663906
  C      -2.282356      0.380866      0.635225
  H      -1.046749      0.951986      0.755573
  H      -4.158577      1.104084     -0.197134
  C      -2.650718     -0.096156      2.023088
  H      -3.581300     -0.675212      2.025784
  C       3.011557      0.633332     -0.564983
  C       3.982537     -0.085370     -1.234746
  C       3.695287     -1.386073     -1.635024
  C       2.446927     -1.931411     -1.355682
  C       1.516959     -1.162413     -0.682348
  N       1.816508      0.087971     -0.307774
  H       4.942415      0.367441     -1.436816
  H       4.439207     -1.969843     -2.160851
  H       2.193770     -2.938760     -1.653213
  H      -3.262015      2.267393      0.787333
  H      -1.868451     -0.713979      2.460844
  H       0.526330     -1.517518     -0.428921
  H       3.158361      1.648452     -0.223509
  H       0.231213      1.538461      1.821704
  H       1.048992      0.701508      0.237701
  O       0.067411      1.514384      0.870030
27
Coordinates from ORCA-job /home/rudenko/2025/kie/for_orca/ch32chno2_pyridine/orca/ts_opt/ts_opt E -648.295383024481
  C      -3.203398      1.456185      0.073605
  H      -2.810122      1.848891     -0.862243
  N      -2.058518     -0.692924     -0.231100
  O      -2.116798     -0.510348     -1.467670
  O      -1.686521     -1.801275      0.223825
  H      -2.727126      0.840768      2.688607
  C      -2.311882      0.376872      0.652370
  H      -1.071410      0.944888      0.700669
  H      -4.220759      1.091406     -0.110277
  C      -2.620786     -0.051628      2.070217
  H      -3.556174     -0.619337      2.134643
  C       3.045546      0.601682     -0.500662
  C       4.048354     -0.111782     -1.127768
  C       3.762510     -1.384882     -1.609403
  C       2.483808     -1.908162     -1.451869
  C       1.523125     -1.146117     -0.814399
  N       1.821986      0.077542     -0.359459
  H       5.031296      0.323704     -1.234446
  H       4.530854     -1.964071     -2.104305
  H       2.230824     -2.894014     -1.814532
  H      -3.266449      2.277892      0.788078
  H      -1.825256     -0.663933      2.491359
  H       0.508847     -1.486909     -0.652230
  H       3.189365      1.595863     -0.101228
  H       0.223797      1.592412      1.703074
  H       1.032925      0.689800      0.157880
  O       0.041963      1.517478      0.757264
27
Coordinates from ORCA-job /home/rudenko/2025/kie/for_orca/ch32chno2_pyridine/orca/ts_opt/ts_opt E -648.295480677436
  C      -3.146785      1.465675      0.030084
  H      -2.699173      1.858402     -0.881053
  N      -2.012264     -0.695571     -0.217850
  O      -2.012180     -0.513648     -1.455746
  O      -1.667044     -1.805366      0.254419
  H      -2.811393      0.844172      2.665364
  C      -2.297365      0.376929      0.652226
  H      -1.051122      0.927440      0.763163
  H      -4.155383      1.110522     -0.211547
  C      -2.680762     -0.048994      2.052831
  H      -3.622575     -0.609420      2.069415
  C       3.025506      0.624634     -0.541414
  C       4.007074     -0.075539     -1.215331
  C       3.724765     -1.362820     -1.659985
  C       2.470483     -1.913181     -1.420110
  C       1.530162     -1.163129     -0.739634
  N       1.825190      0.074482     -0.321345
  H       4.971200      0.381022     -1.386339
  H       4.476791     -1.931998     -2.190288
  H       2.220721     -2.910305     -1.752905
  H      -3.242082      2.285234      0.743413
  H      -1.912486     -0.667568      2.513535
  H       0.534594     -1.523484     -0.515776
  H       3.168241      1.628370     -0.166255
  H       0.237085      1.490467      1.826127
  H       1.050688      0.674677      0.229897
  O       0.068117      1.478999      0.875103
27
Coordinates from ORCA-job /home/rudenko/2025/kie/for_orca/ch32chno2_pyridine/orca/ts_opt/ts_opt E -648.295569568340
  C      -3.080023      1.461689     -0.024320
  H      -2.576239      1.844231     -0.910160
  N      -1.952497     -0.711087     -0.183181
  O      -1.889424     -0.545513     -1.421807
  O      -1.626832     -1.812668      0.320850
  H      -2.899152      0.869411      2.632396
  C      -2.276455      0.373856      0.656779
  H      -1.029156      0.909213      0.830999
  H      -4.074348      1.110452     -0.323729
  C      -2.740403     -0.032041      2.039014
  H      -3.685481     -0.586372      2.009390
  C       3.001919      0.642571     -0.565169
  C       3.959336     -0.042860     -1.287225
  C       3.675415     -1.334926     -1.716825
  C       2.443673     -1.904928     -1.414234
  C       1.526775     -1.168834     -0.688218
  N       1.822750      0.073909     -0.285917
  H       4.906303      0.428632     -1.506725
  H       4.408807     -1.892838     -2.283905
  H       2.193522     -2.906353     -1.733498
  H      -3.212958      2.287853      0.675216
  H      -2.003493     -0.649560      2.549734
  H       0.549354     -1.544476     -0.415002
  H       3.147444      1.648828     -0.197920
  H       0.252774      1.383318      1.946190
  H       1.065222      0.660174      0.302153
  O       0.093168      1.438318      0.995114
27
Coordinates from ORCA-job /home/rudenko/2025/kie/for_orca/ch32chno2_pyridine/orca/ts_opt/ts_opt E -648.295490481213
  C      -3.006356      1.423959     -0.097923
  H      -2.447389      1.762126     -0.968566
  N      -1.901163     -0.765623     -0.093604
  O      -1.781975     -0.660866     -1.334991
  O      -1.600325     -1.841125      0.476880
  H      -2.980017      0.955333      2.589882
  C      -2.256603      0.360488      0.676361
  H      -1.009981      0.882878      0.895688
  H      -3.985483      1.069057     -0.439958
  C      -2.800657      0.025413      2.048670
  H      -3.750025     -0.519492      1.992420
  C       2.996282      0.645426     -0.542989
  C       3.934026     -0.018199     -1.309918
  C       3.630799     -1.289727     -1.785386
  C       2.400226     -1.861877     -1.481963
  C       1.503464     -1.147808     -0.710432
  N       1.817222      0.075791     -0.265312
  H       4.880787      0.454156     -1.528454
  H       4.348498     -1.830447     -2.388078
  H       2.135646     -2.848020     -1.835323
  H      -3.170175      2.281666      0.555586
  H      -2.101349     -0.575212      2.627777
  H       0.529102     -1.527026     -0.433214
  H       3.157089      1.635192     -0.139179
  H       0.271384      1.278391      2.040481
  H       1.074328      0.643145      0.357037
  O       0.112646      1.392400      1.094507
27
Coordinates from ORCA-job /home/rudenko/2025/kie/for_orca/ch32chno2_pyridine/orca/ts_opt/ts_opt E -648.295547450662
  C      -3.080552      1.452629     -0.029449
  H      -2.577038      1.835861     -0.915071
  N      -1.935511     -0.711317     -0.178610
  O      -1.870323     -0.547936     -1.417316
  O      -1.598105     -1.807574      0.329041
  H      -2.903908      0.868553      2.629857
  C      -2.271318      0.372717      0.657439
  H      -1.027369      0.915932      0.834023
  H      -4.071528      1.093457     -0.330504
  C      -2.737158     -0.033152      2.039095
  H      -3.678439     -0.593770      2.007518
  C       3.003951      0.639183     -0.556880
  C       3.958216     -0.049743     -1.279827
  C       3.665314     -1.336974     -1.717828
  C       2.428109     -1.898847     -1.422419
  C       1.514703     -1.159552     -0.695237
  N       1.819252      0.078532     -0.284926
  H       4.909638      0.415384     -1.493576
  H       4.396066     -1.897534     -2.285707
  H       2.171055     -2.896444     -1.748105
  H      -3.221263      2.280052      0.667045
  H      -1.997962     -0.644600      2.553823
  H       0.533853     -1.529429     -0.426563
  H       3.156160      1.642251     -0.183671
  H       0.256248      1.396060      1.947357
  H       1.064011      0.667737      0.303899
  O       0.093900      1.448524      0.996590
27
Coordinates from ORCA-job /home/rudenko/2025/kie/for_orca/ch32chno2_pyridine/orca/ts_opt/ts_opt E -648.295521198180
  C      -3.149355      1.467923      0.035805
  H      -2.704449      1.880298     -0.867792
  N      -1.982451     -0.672002     -0.240752
  O      -1.975405     -0.469085     -1.474979
  O      -1.616707     -1.781691      0.216195
  H      -2.817366      0.808600      2.662496
  C      -2.287840      0.381529      0.644627
  H      -1.047355      0.942662      0.768688
  H      -4.152266      1.103027     -0.214622
  C      -2.672313     -0.072591      2.036058
  H      -3.606817     -0.645219      2.038477
  C       3.016801      0.627212     -0.552846
  C       3.991292     -0.081217     -1.228356
  C       3.705033     -1.374501     -1.652475
  C       2.453973     -1.922442     -1.391377
  C       1.520443     -1.163982     -0.710757
  N       1.819353      0.079402     -0.312240
  H       4.952977      0.373713     -1.416584
  H       4.451632     -1.950332     -2.183261
  H       2.201572     -2.924257     -1.707653
  H      -3.258013      2.275198      0.761085
  H      -1.898350     -0.688711      2.490617
  H       0.528043     -1.522965     -0.469362
  H       3.162837      1.636143     -0.193157
  H       0.242568      1.510350      1.836195
  H       1.049898      0.686456      0.240496
  O       0.072265      1.496482      0.885474
27
Coordinates from ORCA-job /home/rudenko/2025/kie/for_orca/ch32chno2_pyridine/orca/ts_opt/ts_opt E -648.295502338189
  C      -3.213658      1.485139      0.106968
  H      -2.830171      1.926209     -0.811220
  N      -2.043804     -0.632232     -0.301917
  O      -2.103762     -0.391688     -1.527572
  O      -1.650105     -1.753262      0.101324
  H      -2.720869      0.752722      2.687916
  C      -2.306946      0.391432      0.631104
  H      -1.069824      0.964506      0.700277
  H      -4.227309      1.116769     -0.089709
  C      -2.605893     -0.108085      2.027755
  H      -3.533995     -0.689653      2.067247
  C       3.026449      0.616300     -0.550366
  C       4.023137     -0.107497     -1.175287
  C       3.748914     -1.408380     -1.583608
  C       2.487540     -1.948112     -1.357677
  C       1.531971     -1.174621     -0.726039
  N       1.819732      0.075838     -0.341587
  H       4.992379      0.341525     -1.337031
  H       4.512851     -1.996318     -2.075014
  H       2.243874     -2.955350     -1.663464
  H      -3.283390      2.271672      0.859345
  H      -1.801491     -0.729598      2.417473
  H       0.530338     -1.526662     -0.513663
  H       3.162229      1.631890     -0.205654
  H       0.227617      1.614818      1.716129
  H       1.034549      0.697851      0.174165
  O       0.049635      1.534784      0.770107
27
Coordinates from ORCA-job /home/rudenko/2025/kie/for_orca/ch32chno2_pyridine/orca/ts_opt/ts_opt E -648.295515539046
  C      -3.208042      1.473661      0.089110
  H      -2.816425      1.901246     -0.832024
  N      -2.035997     -0.650107     -0.277443
  O      -2.099001     -0.431457     -1.507047
  O      -1.634167     -1.760903      0.144440
  H      -2.733526      0.783292      2.685549
  C      -2.305281      0.388575      0.637514
  H      -1.068489      0.959486      0.708544
  H      -4.219742      1.101898     -0.111296
  C      -2.613975     -0.088097      2.040265
  H      -3.542515     -0.668819      2.082757
  C       3.031055      0.610623     -0.532724
  C       4.026718     -0.109189     -1.163929
  C       3.745564     -1.400247     -1.598063
  C       2.478885     -1.934703     -1.389939
  C       1.524980     -1.165661     -0.750461
  N       1.818913      0.075672     -0.342144
  H       5.000324      0.335421     -1.310921
  H       4.508302     -1.984809     -2.095328
  H       2.229718     -2.934298     -1.715740
  H      -3.284706      2.271449      0.828874
  H      -1.812424     -0.703132      2.445702
  H       0.519659     -1.513727     -0.551500
  H       3.171761      1.618924     -0.169112
  H       0.231925      1.601854      1.726456
  H       1.034614      0.694833      0.178167
  O       0.051871      1.528214      0.780292
27
Coordinates from ORCA-job /home/rudenko/2025/kie/for_orca/ch32chno2_pyridine/orca/ts_opt/ts_opt E -648.295512338954
  C      -3.227328      1.473772      0.106628
  H      -2.854401      1.905854     -0.820154
  N      -2.053455     -0.643897     -0.288522
  O      -2.142988     -0.422156     -1.515739
  O      -1.637075     -1.753420      0.122019
  H      -2.702583      0.776709      2.691806
  C      -2.310159      0.390862      0.634940
  H      -1.076177      0.965096      0.687399
  H      -4.240995      1.098429     -0.076397
  C      -2.591756     -0.091991      2.041366
  H      -3.517372     -0.676090      2.098590
  C       3.035516      0.604283     -0.522888
  C       4.037835     -0.119380     -1.139000
  C       3.757616     -1.408569     -1.579250
  C       2.485310     -1.937326     -1.391950
  C       1.524935     -1.164641     -0.766613
  N       1.818016      0.074842     -0.352171
  H       5.015722      0.320859     -1.269814
  H       4.525439     -1.996096     -2.065074
  H       2.236709     -2.935391     -1.722855
  H      -3.293623      2.269032      0.850122
  H      -1.780742     -0.705464      2.429971
  H       0.515056     -1.508347     -0.583536
  H       3.175043      1.611566     -0.155982
  H       0.227913      1.634039      1.686949
  H       1.028851      0.698288      0.156856
  O       0.044694      1.539138      0.743298
27
Coordinates from ORCA-job /home/rudenko/2025/kie/for_orca/ch32chno2_pyridine/orca/ts_opt/ts_opt E -648.295555867946
  C      -3.286932      1.485832      0.161347
  H      -2.973877      1.923689     -0.784666
  N      -2.136047     -0.625872     -0.320995
  O      -2.338822     -0.406245     -1.533339
  O      -1.664479     -1.724713      0.050598
  H      -2.588598      0.778869      2.706851
  C      -2.331866      0.406820      0.625511
  H      -1.115346      0.965005      0.619425
  H      -4.308040      1.106351      0.039722
  C      -2.522632     -0.085801      2.045139
  H      -3.444298     -0.667751      2.158707
  C       3.040524      0.580367     -0.486127
  C       4.071749     -0.138149     -1.059382
  C       3.812042     -1.422155     -1.526788
  C       2.531804     -1.951298     -1.405846
  C       1.542922     -1.183584     -0.819513
  N       1.815349      0.051859     -0.380553
  H       5.055168      0.302246     -1.137328
  H       4.601900     -2.005781     -1.981023
  H       2.298860     -2.946522     -1.756315
  H      -3.309753      2.278079      0.910752
  H      -1.688790     -0.702467      2.375770
  H       0.526895     -1.529832     -0.681109
  H       3.162129      1.584784     -0.104971
  H       0.219189      1.698092      1.561969
  H       1.003505      0.682755      0.094471
  O       0.027445      1.545422      0.627693
27
Coordinates from ORCA-job /home/rudenko/2025/kie/for_orca/ch32chno2_pyridine/orca/ts_opt/ts_opt E -648.295522596232
  C      -3.230593      1.484600      0.112496
  H      -2.856388      1.919293     -0.812539
  N      -2.071471     -0.638315     -0.293948
  O      -2.173317     -0.414194     -1.519590
  O      -1.652009     -1.748930      0.110453
  H      -2.701821      0.774407      2.693805
  C      -2.318261      0.394576      0.634098
  H      -1.079816      0.960050      0.686365
  H      -4.246358      1.115473     -0.071295
  C      -2.598069     -0.092319      2.039621
  H      -3.526879     -0.671236      2.097431
  C       3.035098      0.605191     -0.530561
  C       4.041112     -0.112745     -1.147322
  C       3.770312     -1.406469     -1.579983
  C       2.503649     -1.945462     -1.384089
  C       1.539179     -1.178197     -0.758232
  N       1.822909      0.066174     -0.351710
  H       5.014459      0.335458     -1.284792
  H       4.541036     -1.989573     -2.066551
  H       2.262440     -2.947374     -1.708783
  H      -3.291725      2.276518      0.859986
  H      -1.789325     -0.711925      2.423209
  H       0.533569     -1.530447     -0.567956
  H       3.167295      1.615744     -0.169956
  H       0.228904      1.623904      1.688247
  H       1.030205      0.687269      0.156962
  O       0.045867      1.528529      0.744633
27
Coordinates from ORCA-job /home/rudenko/2025/kie/for_orca/ch32chno2_pyridine/orca/ts_opt/ts_opt E -648.295530749767
  C      -3.210550      1.480297      0.092415
  H      -2.816260      1.913264     -0.825122
  N      -2.043864     -0.644373     -0.282019
  O      -2.122015     -0.425762     -1.510772
  O      -1.630105     -1.752945      0.134960
  H      -2.734729      0.780176      2.686167
  C      -2.310012      0.391404      0.636069
  H      -1.068221      0.957962      0.709129
  H      -4.222035      1.110768     -0.113092
  C      -2.616830     -0.089244      2.037983
  H      -3.545903     -0.669174      2.079815
  C       3.029690      0.611027     -0.537795
  C       4.027056     -0.105614     -1.169837
  C       3.751426     -1.399718     -1.598364
  C       2.488495     -1.940327     -1.383664
  C       1.532525     -1.174309     -0.743534
  N       1.821060      0.070259     -0.340973
  H       4.997714      0.343727     -1.321817
  H       4.515511     -1.981844     -2.096431
  H       2.243710     -2.942484     -1.704879
  H      -3.288235      2.273648      0.836846
  H      -1.815278     -0.706208      2.440422
  H       0.529856     -1.527418     -0.539393
  H       3.166174      1.621507     -0.178649
  H       0.233063      1.597199      1.729624
  H       1.035625      0.687496      0.178992
  O       0.052134      1.520685      0.783917
27
Coordinates from ORCA-job /home/rudenko/2025/kie/for_orca/ch32chno2_pyridine/orca/ts_opt/ts_opt E -648.295537129511
  C      -3.222438      1.481017      0.100954
  H      -2.838368      1.915684     -0.820116
  N      -2.056477     -0.641846     -0.287358
  O      -2.153787     -0.424470     -1.514573
  O      -1.632652     -1.748087      0.124590
  H      -2.716894      0.780161      2.689506
  C      -2.313557      0.394137      0.634459
  H      -1.075365      0.959005      0.697599
  H      -4.235010      1.109316     -0.094719
  C      -2.605283     -0.088493      2.039210
  H      -3.533500     -0.669009      2.090168
  C       3.032829      0.606548     -0.530943
  C       4.034383     -0.110335     -1.156115
  C       3.760198     -1.403002     -1.589898
  C       2.494638     -1.941960     -1.386874
  C       1.534675     -1.175748     -0.752890
  N       1.821721      0.067447     -0.345223
  H       5.007015      0.337756     -1.298921
  H       4.527377     -1.985250     -2.083044
  H       2.250806     -2.942965     -1.712400
  H      -3.294346      2.273600      0.846789
  H      -1.798956     -0.705156      2.432391
  H       0.529827     -1.527510     -0.557385
  H       3.167852      1.616157     -0.168754
  H       0.232544      1.611405      1.709399
  H       1.032409      0.687132      0.169305
  O       0.050360      1.524465      0.764843
27
Coordinates from ORCA-job /home/rudenko/2025/kie/for_orca/ch32chno2_pyridine/orca/ts_opt/ts_opt E -648.295535127726
  C      -3.214740      1.486876      0.097522
  H      -2.821580      1.923004     -0.819037
  N      -2.055997     -0.640125     -0.287374
  O      -2.144260     -0.419879     -1.514984
  O      -1.639848     -1.749520      0.124985
  H      -2.730620      0.777936      2.687644
  C      -2.314932      0.394313      0.634582
  H      -1.071131      0.955723      0.706501
  H      -4.227300      1.120170     -0.107551
  C      -2.617675     -0.089830      2.036388
  H      -3.548245     -0.667212      2.079950
  C       3.029524      0.611234     -0.542180
  C       4.029481     -0.102578     -1.173332
  C       3.759763     -1.399653     -1.596593
  C       2.500031     -1.945919     -1.377584
  C       1.541279     -1.182527     -0.738398
  N       1.824085      0.064980     -0.340897
  H       4.997510      0.351237     -1.328788
  H       4.525855     -1.979591     -2.094130
  H       2.259712     -2.950367     -1.694996
  H      -3.289325      2.277241      0.845437
  H      -1.816264     -0.710177      2.433819
  H       0.540595     -1.539651     -0.531451
  H       3.161404      1.623802     -0.187196
  H       0.233553      1.593566      1.727624
  H       1.036118      0.681464      0.178049
  O       0.053009      1.515482      0.781990
27
Coordinates from ORCA-job /home/rudenko/2025/kie/for_orca/ch32chno2_pyridine/orca/ts_opt/ts_opt E -648.295542278589
  C      -3.218250      1.485241      0.098980
  H      -2.828460      1.923727     -0.817930
  N      -2.054985     -0.638781     -0.290229
  O      -2.150830     -0.419467     -1.517157
  O      -1.632102     -1.745929      0.120565
  H      -2.723752      0.776998      2.687691
  C      -2.313325      0.395528      0.633017
  H      -1.073548      0.956994      0.703109
  H      -4.229900      1.115267     -0.104536
  C      -2.610803     -0.090169      2.035655
  H      -3.539969     -0.669595      2.081587
  C       3.029581      0.609658     -0.538630
  C       4.029703     -0.105242     -1.168333
  C       3.758606     -1.401398     -1.593587
  C       2.497405     -1.945641     -1.377965
  C       1.538619     -1.181143     -0.740126
  N       1.822764      0.065345     -0.340569
  H       4.998892      0.347008     -1.321108
  H       4.524750     -1.982187     -2.090052
  H       2.255955     -2.949311     -1.696995
  H      -3.294007      2.274578      0.847860
  H      -1.806742     -0.708809      2.430290
  H       0.536635     -1.536255     -0.535949
  H       3.162437      1.621636     -0.182304
  H       0.233741      1.600121      1.722505
  H       1.034369      0.683431      0.177021
  O       0.053216      1.518394      0.777191
27
Coordinates from ORCA-job /home/rudenko/2025/kie/for_orca/ch32chno2_pyridine/orca/ts_opt/ts_opt E -648.295538352647
  C      -3.211934      1.486451      0.095372
  H      -2.815888      1.927660     -0.817554
  N      -2.046660     -0.636814     -0.291125
  O      -2.134489     -0.414850     -1.518448
  O      -1.626008     -1.745094      0.119786
  H      -2.733348      0.772812      2.685279
  C      -2.310994      0.394925      0.632338
  H      -1.068389      0.957658      0.710119
  H      -4.222241      1.117255     -0.116243
  C      -2.616209     -0.093148      2.032371
  H      -3.545349     -0.673132      2.071963
  C       3.026074      0.613070     -0.545399
  C       4.023364     -0.101901     -1.179456
  C       3.752510     -1.400509     -1.597359
  C       2.494269     -1.947038     -1.370489
  C       1.538121     -1.182345     -0.728997
  N       1.822139      0.066418     -0.336489
  H       4.990281      0.352128     -1.341077
  H       4.516559     -1.981419     -2.096894
  H       2.253076     -2.952574     -1.683768
  H      -3.292811      2.273552      0.846073
  H      -1.814220     -0.712174      2.430623
  H       0.538235     -1.538811     -0.516872
  H       3.158961      1.626743     -0.193970
  H       0.233920      1.591558      1.736058
  H       1.036323      0.683293      0.184205
  O       0.054709      1.516284      0.789955
27
Coordinates from ORCA-job /home/rudenko/2025/kie/for_orca/ch32chno2_pyridine/orca/ts_opt/ts_opt E -648.295538943923
  C      -3.213739      1.493575      0.096699
  H      -2.813758      1.937241     -0.813403
  N      -2.062164     -0.636536     -0.291064
  O      -2.161088     -0.417900     -1.517897
  O      -1.640596     -1.744532      0.119425
  H      -2.732924      0.778577      2.686284
  C      -2.317128      0.398056      0.632255
  H      -1.071754      0.951517      0.709844
  H      -4.224280      1.127949     -0.119715
  C      -2.621676     -0.088160      2.033420
  H      -3.553721     -0.663293      2.075133
  C       3.026410      0.612883     -0.548803
  C       4.026728     -0.096445     -1.184435
  C       3.763188     -1.397291     -1.600002
  C       2.509003     -1.951483     -1.369443
  C       1.549476     -1.192095     -0.726575
  N       1.826507      0.058863     -0.335992
  H       4.990276      0.363619     -1.349133
  H       4.529646     -1.973877     -2.100865
  H       2.273357     -2.958785     -1.681276
  H      -3.294819      2.278116      0.850042
  H      -1.821884     -0.711032      2.430009
  H       0.551779     -1.553747     -0.512914
  H       3.153702      1.627855     -0.199022
  H       0.235045      1.579087      1.739106
  H       1.037591      0.673118      0.185552
  O       0.056820      1.504722      0.792772
27
Coordinates from ORCA-job /home/rudenko/2025/kie/for_orca/ch32chno2_pyridine/orca/ts_opt/ts_opt E -648.295434663479
  C      -3.169157      1.494184      0.056395
  H      -2.711300      1.978164     -0.805300
  N      -1.993493     -0.628045     -0.290339
  O      -2.071122     -0.413030     -1.519847
  O      -1.554079     -1.726067      0.130544
  H      -2.794074      0.771590      2.662080
  C      -2.291325      0.400850      0.624089
  H      -1.041819      0.950858      0.763798
  H      -4.150719      1.116186     -0.252231
  C      -2.647499     -0.091810      2.011889
  H      -3.574898     -0.676115      2.013374
  C       2.997459      0.630323     -0.580890
  C       3.973708     -0.075263     -1.256829
  C       3.709033     -1.387242     -1.635694
  C       2.476872     -1.955484     -1.331732
  C       1.539940     -1.198409     -0.654097
  N       1.819174      0.061989     -0.297529
  H       4.920101      0.395788     -1.479643
  H       4.457445     -1.961515     -2.165638
  H       2.240875     -2.971237     -1.614518
  H      -3.326967      2.250647      0.826029
  H      -1.858572     -0.707914      2.439230
  H       0.555897     -1.564794     -0.390055
  H       3.127563      1.652168     -0.252944
  H       0.240873      1.508008      1.849007
  H       1.049007      0.667724      0.253099
  O       0.077075      1.478445      0.897753
27
Coordinates from ORCA-job /home/rudenko/2025/kie/for_orca/ch32chno2_pyridine/orca/ts_opt/ts_opt E -648.295543671375
  C      -3.205858      1.495622      0.087585
  H      -2.790012      1.950814     -0.809879
  N      -2.055289     -0.636214     -0.289706
  O      -2.154809     -0.420933     -1.516885
  O      -1.630807     -1.741841      0.123918
  H      -2.744652      0.782324      2.682047
  C      -2.314024      0.400260      0.630811
  H      -1.068656      0.947639      0.720518
  H      -4.209445      1.126838     -0.153943
  C      -2.628792     -0.084866      2.030656
  H      -3.561238     -0.659786      2.065773
  C       3.021810      0.616023     -0.555650
  C       4.018351     -0.090074     -1.200803
  C       3.756706     -1.393526     -1.609452
  C       2.507955     -1.953288     -1.363292
  C       1.551841     -1.196598     -0.712229
  N       1.827210      0.056597     -0.327878
  H       4.977603      0.374356     -1.377895
  H       4.520404     -1.967824     -2.117119
  H       2.273928     -2.962686     -1.669529
  H      -3.306964      2.272276      0.846602
  H      -1.831940     -0.707455      2.433428
  H       0.557412     -1.560854     -0.488024
  H       3.148091      1.632420     -0.209662
  H       0.237446      1.558933      1.763667
  H       1.040612      0.668110      0.200946
  O       0.063118      1.493734      0.815993
27
Coordinates from ORCA-job /home/rudenko/2025/kie/for_orca/ch32chno2_pyridine/orca/ts_opt/ts_opt E -648.295548726745
  C      -3.202854      1.493619      0.085910
  H      -2.786829      1.946397     -0.812649
  N      -2.048384     -0.636544     -0.288601
  O      -2.135819     -0.418028     -1.516350
  O      -1.630529     -1.744447      0.126074
  H      -2.748781      0.779778      2.681486
  C      -2.312022      0.398471      0.631591
  H      -1.066072      0.949645      0.723225
  H      -4.206801      1.125005     -0.154506
  C      -2.630406     -0.087154      2.030193
  H      -3.562427     -0.662937      2.062666
  C       3.021124      0.617342     -0.557063
  C       4.016057     -0.090554     -1.202702
  C       3.752251     -1.393908     -1.610243
  C       2.502987     -1.951848     -1.362531
  C       1.548554     -1.193502     -0.710985
  N       1.825970      0.059670     -0.327892
  H       4.975771      0.372442     -1.381028
  H       4.514709     -1.969568     -2.118225
  H       2.267369     -2.961163     -1.667801
  H      -3.303302      2.272087      0.843156
  H      -1.834233     -0.709296      2.435067
  H       0.554211     -1.556894     -0.484898
  H       3.149147      1.633758     -0.211785
  H       0.236808      1.559277      1.766865
  H       1.041053      0.671447      0.202041
  O       0.062448      1.496905      0.818985
27
Coordinates from ORCA-job /home/rudenko/2025/kie/for_orca/ch32chno2_pyridine/orca/ts_opt/ts_opt E -648.295551995491
  C      -3.201438      1.493247      0.086158
  H      -2.786678      1.945121     -0.813377
  N      -2.043889     -0.634952     -0.290567
  O      -2.123118     -0.412189     -1.518195
  O      -1.631194     -1.745231      0.122966
  H      -2.749756      0.775369      2.681066
  C      -2.310418      0.397821      0.631220
  H      -1.064963      0.951276      0.724260
  H      -4.205990      1.124906     -0.152249
  C      -2.630279     -0.090391      2.028390
  H      -3.562021     -0.666733      2.058895
  C       3.019817      0.618724     -0.559425
  C       4.013671     -0.090620     -1.205140
  C       3.749102     -1.394779     -1.609571
  C       2.500187     -1.952105     -1.358724
  C       1.546886     -1.192361     -0.707187
  N       1.824974      0.061644     -0.327265
  H       4.973161      0.371892     -1.385907
  H       4.510725     -1.971566     -2.117522
  H       2.264009     -2.962018     -1.661568
  H      -3.300273      2.272323      0.842998
  H      -1.834272     -0.712924      2.433035
  H       0.553055     -1.555506     -0.478485
  H       3.148483      1.635841     -0.216465
  H       0.236543      1.559865      1.768729
  H       1.041145      0.673921      0.203285
  O       0.062533      1.499423      0.820646
27
Coordinates from ORCA-job /home/rudenko/2025/kie/for_orca/ch32chno2_pyridine/orca/ts_opt/ts_opt E -648.295554728152
  C      -3.201442      1.496211      0.089125
  H      -2.789576      1.947735     -0.811857
  N      -2.044623     -0.631183     -0.295916
  O      -2.119089     -0.402606     -1.522712
  O      -1.637394     -1.744721      0.113953
  H      -2.747788      0.768971      2.681207
  C      -2.310364      0.398577      0.629821
  H      -1.065917      0.951453      0.723559
  H      -4.207741      1.129923     -0.145092
  C      -2.630046     -0.094530      2.025212
  H      -3.562542     -0.669710      2.054297
  C       3.017825      0.620509     -0.564262
  C       4.011716     -0.089086     -1.209668
  C       3.749411     -1.395690     -1.607598
  C       2.502645     -1.955109     -1.350802
  C       1.549237     -1.194975     -0.699868
  N       1.825095      0.061406     -0.326233
  H       4.969505      0.375092     -1.395144
  H       4.511093     -1.972729     -2.115175
  H       2.268175     -2.966872     -1.648756
  H      -3.295511      2.275045      0.846826
  H      -1.834594     -0.719707      2.426871
  H       0.556887     -1.559596     -0.467184
  H       3.144839      1.639460     -0.226156
  H       0.236065      1.558515      1.769675
  H       1.041103      0.673997      0.204568
  O       0.063032      1.499618      0.821309
27
Coordinates from ORCA-job /home/rudenko/2025/kie/for_orca/ch32chno2_pyridine/orca/ts_opt/ts_opt E -648.295559610807
  C      -3.194529      1.507386      0.092344
  H      -2.782135      1.960694     -0.807426
  N      -2.043891     -0.620875     -0.309725
  O      -2.104926     -0.378214     -1.534463
  O      -1.651096     -1.742489      0.091582
  H      -2.752140      0.752571      2.678657
  C      -2.309260      0.401170      0.625252
  H      -1.064897      0.948621      0.729034
  H      -4.203855      1.148702     -0.140696
  C      -2.637226     -0.104740      2.014066
  H      -3.573244     -0.674558      2.033768
  C       3.008602      0.628114     -0.583734
  C       4.000419     -0.079518     -1.234523
  C       3.747381     -1.395012     -1.608465
  C       2.511457     -1.964809     -1.323598
  C       1.559507     -1.205884     -0.669117
  N       1.826501      0.058916     -0.318312
  H       4.949596      0.392867     -1.442261
  H       4.507716     -1.970807     -2.119457
  H       2.284108     -2.983404     -1.603214
  H      -3.281473      2.283027      0.854166
  H      -1.847048     -0.738933      2.411939
  H       0.574196     -1.577123     -0.417918
  H       3.129096      1.653321     -0.262563
  H       0.235791      1.539307      1.788559
  H       1.043630      0.669781      0.217438
  O       0.067722      1.491885      0.838664
27
Coordinates from ORCA-job /home/rudenko/2025/kie/for_orca/ch32chno2_pyridine/orca/ts_opt/ts_opt E -648.295564348790
  C      -3.177934      1.515895      0.084882
  H      -2.753039      1.971199     -0.808039
  N      -2.032519     -0.615882     -0.314627
  O      -2.075801     -0.365977     -1.538826
  O      -1.651055     -1.741884      0.085314
  H      -2.772745      0.744303      2.672010
  C      -2.305073      0.402128      0.622413
  H      -1.057818      0.943728      0.745670
  H      -4.186672      1.164120     -0.160990
  C      -2.653948     -0.109775      2.003945
  H      -3.593414     -0.674260      2.007981
  C       2.996933      0.637033     -0.603980
  C       3.982786     -0.067036     -1.267610
  C       3.737613     -1.390114     -1.619509
  C       2.514915     -1.970681     -1.301196
  C       1.568103     -1.214534     -0.636196
  N       1.827620      0.057404     -0.306426
  H       4.921536      0.413773     -1.501760
  H       4.493722     -1.963422     -2.139486
  H       2.293885     -2.995296     -1.563296
  H      -3.268993      2.288411      0.849405
  H      -1.872816     -0.750896      2.408483
  H       0.591871     -1.592724     -0.361449
  H       3.112327      1.667263     -0.297374
  H       0.236816      1.505165      1.826184
  H       1.048924      0.663898      0.240021
  O       0.074776      1.478161      0.874454
27
Coordinates from ORCA-job /home/rudenko/2025/kie/for_orca/ch32chno2_pyridine/orca/ts_opt/ts_opt E -648.295573143530
  C      -3.149438      1.523409      0.068734
  H      -2.704624      1.976605     -0.815478
  N      -2.009148     -0.614479     -0.314053
  O      -2.022847     -0.359314     -1.538213
  O      -1.644262     -1.744706      0.089470
  H      -2.807402      0.739434      2.660326
  C      -2.296231      0.401377      0.620379
  H      -1.045494      0.936342      0.772926
  H      -4.156594      1.180599     -0.195835
  C      -2.679734     -0.112917      1.991695
  H      -3.623257     -0.670334      1.972137
  C       2.979573      0.649165     -0.628044
  C       3.955317     -0.050245     -1.311270
  C       3.718483     -1.381080     -1.638922
  C       2.513524     -1.973840     -1.278145
  C       1.576011     -1.221687     -0.595814
  N       1.827397      0.057705     -0.289694
  H       4.880153      0.440038     -1.578806
  H       4.467229     -1.950980     -2.173100
  H       2.299373     -3.004726     -1.520549
  H      -3.247967      2.295474      0.832819
  H      -1.912968     -0.761590      2.411408
  H       0.612752     -1.608315     -0.289455
  H       3.089871      1.684496     -0.337225
  H       0.239040      1.453458      1.882228
  H       1.056399      0.657235      0.273642
  O       0.084844      1.458875      0.928840
27
Coordinates from ORCA-job /home/rudenko/2025/kie/for_orca/ch32chno2_pyridine/orca/ts_opt/ts_opt E -648.295577356692
  C      -3.139931      1.523258      0.062290
  H      -2.691232      1.971658     -0.822334
  N      -1.998743     -0.616059     -0.311700
  O      -2.000836     -0.360551     -1.535899
  O      -1.639288     -1.746863      0.094802
  H      -2.818608      0.739431      2.656132
  C      -2.292048      0.400315      0.620386
  H      -1.042269      0.934450      0.781558
  H      -4.147599      1.182802     -0.203475
  C      -2.687248     -0.113204      1.988567
  H      -3.631645     -0.668827      1.961527
  C       2.975013      0.652487     -0.632658
  C       3.947062     -0.046220     -1.321824
  C       3.710485     -1.378064     -1.645496
  C       2.509415     -1.972611     -1.274828
  C       1.575725     -1.221186     -0.586531
  N       1.826670      0.059266     -0.284580
  H       4.868885      0.445451     -1.597094
  H       4.456386     -1.947381     -2.184251
  H       2.295520     -3.004324     -1.513898
  H      -3.237943      2.298414      0.823322
  H      -1.925138     -0.763370      2.414443
  H       0.615768     -1.609372     -0.272010
  H       3.085307      1.688620     -0.344724
  H       0.240045      1.439156      1.898843
  H       1.058302      0.657290      0.284199
  O       0.087947      1.455431      0.945234
27
Coordinates from ORCA-job /home/rudenko/2025/kie/for_orca/ch32chno2_pyridine/orca/ts_opt/ts_opt E -648.295585092195
  C      -3.083944      1.542594      0.036509
  H      -2.611623      1.965498     -0.848054
  N      -1.973159     -0.619493     -0.309054
  O      -1.921568     -0.358854     -1.530600
  O      -1.658784     -1.760159      0.105309
  H      -2.875601      0.740174      2.633492
  C      -2.278016      0.400456      0.617739
  H      -1.031129      0.908694      0.825466
  H      -4.099224      1.230446     -0.235250
  C      -2.738798     -0.111593      1.965861
  H      -3.694796     -0.643176      1.897153
  C       2.939213      0.673448     -0.673371
  C       3.895802     -0.010705     -1.397864
  C       3.685065     -1.355926     -1.681420
  C       2.523883     -1.978268     -1.236720
  C       1.604416     -1.240226     -0.515644
  N       1.829758      0.053549     -0.253321
  H       4.786260      0.502527     -1.731032
  H       4.419816     -1.914112     -2.246497
  H       2.330015     -3.020769     -1.443870
  H      -3.165998      2.329449      0.787429
  H      -2.010834     -0.783149      2.417447
  H       0.673695     -1.649414     -0.145297
  H       3.031433      1.718826     -0.413945
  H       0.244945      1.332032      1.991336
  H       1.070838      0.637158      0.345688
  O       0.108335      1.410993      1.038509
27
Coordinates from ORCA-job /home/rudenko/2025/kie/for_orca/ch32chno2_pyridine/orca/ts_opt/ts_opt E -648.295601100210
  C      -3.011444      1.548092     -0.009544
  H      -2.495748      1.939283     -0.884306
  N      -1.933901     -0.642969     -0.275511
  O      -1.820932     -0.400972     -1.496902
  O      -1.659304     -1.782477      0.168472
  H      -2.949209      0.775926      2.601829
  C      -2.259882      0.395996      0.622862
  H      -1.013057      0.878402      0.884157
  H      -4.024983      1.258819     -0.311648
  C      -2.798735     -0.087563      1.952474
  H      -3.762226     -0.598026      1.841467
  C       2.901222      0.692299     -0.696530
  C       3.838610      0.028431     -1.463654
  C       3.647744     -1.322700     -1.732773
  C       2.524474     -1.971357     -1.231878
  C       1.622701     -1.252501     -0.470470
  N       1.828770      0.047176     -0.222234
  H       4.699345      0.561745     -1.840503
  H       4.368516     -1.865300     -2.330079
  H       2.346737     -3.019198     -1.425996
  H      -3.098222      2.352047      0.722543
  H      -2.110621     -0.769474      2.448913
  H       0.720925     -1.682299     -0.055522
  H       2.979998      1.740743     -0.445294
  H       0.249575      1.209179      2.092678
  H       1.082946      0.611126      0.411464
  O       0.126699      1.355572      1.145986
27
Coordinates from ORCA-job /home/rudenko/2025/kie/for_orca/ch32chno2_pyridine/orca/ts_opt/ts_opt E -648.295636172411
  C      -2.925494      1.541467     -0.065740
  H      -2.359665      1.893201     -0.925878
  N      -1.884540     -0.677976     -0.225680
  O      -1.699537     -0.466779     -1.444361
  O      -1.658205     -1.811834      0.257750
  H      -3.021873      0.827576      2.560585
  C      -2.235899      0.387585      0.630740
  H      -0.991689      0.847208      0.947750
  H      -3.932229      1.271300     -0.406037
  C      -2.856165     -0.053684      1.939388
  H      -3.823674     -0.545586      1.787052
  C       2.860633      0.711285     -0.705441
  C       3.774370      0.070323     -1.519180
  C       3.596629     -1.282354     -1.789567
  C       2.509755     -1.955811     -1.243088
  C       1.630216     -1.258951     -0.436820
  N       1.823289      0.042544     -0.188075
  H       4.606848      0.622345     -1.930912
  H       4.299385     -1.807201     -2.423089
  H       2.342630     -3.005388     -1.437116
  H      -3.022571      2.367769      0.639781
  H      -2.211604     -0.738713      2.487421
  H       0.755941     -1.708441      0.014193
  H       2.930742      1.759517     -0.450825
  H       0.254318      1.086846      2.191542
  H       1.093614      0.585233      0.480029
  O       0.144772      1.298519      1.255577
27
Coordinates from ORCA-job /home/rudenko/2025/kie/for_orca/ch32chno2_pyridine/orca/ts_opt/ts_opt E -648.295664295568
  C      -2.853444      1.526676     -0.114577
  H      -2.249235      1.842698     -0.962339
  N      -1.838380     -0.709918     -0.177623
  O      -1.593281     -0.529217     -1.390487
  O      -1.648673     -1.834365      0.341299
  H      -3.073030      0.874584      2.522059
  C      -2.212868      0.379751      0.637851
  H      -0.976958      0.824752      0.997817
  H      -3.852332      1.266468     -0.484456
  C      -2.895294     -0.022839      1.927845
  H      -3.863345     -0.503216      1.745206
  C       2.829232      0.724927     -0.701984
  C       3.722000      0.103072     -1.553119
  C       3.547515     -1.247625     -1.835359
  C       2.485500     -1.938414     -1.262182
  C       1.626504     -1.260184     -0.418885
  N       1.815738      0.039735     -0.159691
  H       4.535780      0.667997     -1.984243
  H       4.233444     -1.757678     -2.498710
  H       2.320932     -2.986706     -1.465120
  H      -2.959175      2.374424      0.563851
  H      -2.285251     -0.704959      2.517259
  H       0.771060     -1.723832      0.053206
  H       2.898074      1.770439     -0.436055
  H       0.257864      0.998627      2.264587
  H       1.099291      0.567105      0.534398
  O       0.158332      1.257696      1.339451
27
Coordinates from ORCA-job /home/rudenko/2025/kie/for_orca/ch32chno2_pyridine/orca/ts_opt/ts_opt E -648.295695313031
  C      -2.849188      1.523773     -0.120630
  H      -2.240210      1.839685     -0.965193
  N      -1.835992     -0.714265     -0.171392
  O      -1.593716     -0.540689     -1.385627
  O      -1.643367     -1.835043      0.354113
  H      -3.075673      0.883586      2.518438
  C      -2.211339      0.379954      0.638416
  H      -0.977735      0.821932      1.001668
  H      -3.844985      1.260912     -0.496717
  C      -2.897465     -0.016541      1.928489
  H      -3.865640     -0.496558      1.745655
  C       2.828443      0.724816     -0.698359
  C       3.719798      0.106067     -1.553284
  C       3.544448     -1.243532     -1.840330
  C       2.483055     -1.936047     -1.268162
  C       1.625252     -1.260804     -0.421219
  N       1.815512      0.037924     -0.157091
  H       4.533249      0.672322     -1.983276
  H       4.229234     -1.751381     -2.506566
  H       2.317994     -2.983581     -1.474651
  H      -2.960897      2.372778      0.555243
  H      -2.289414     -0.696611      2.522186
  H       0.770427     -1.726024      0.050409
  H       2.898429      1.769090     -0.427869
  H       0.259778      0.991076      2.270610
  H       1.099378      0.564195      0.538881
  O       0.160626      1.252965      1.346256
27
Coordinates from ORCA-job /home/rudenko/2025/kie/for_orca/ch32chno2_pyridine/orca/ts_opt/ts_opt E -648.295749219900
  C      -2.872900      1.491627     -0.141996
  H      -2.240867      1.817137     -0.966617
  N      -1.880879     -0.752152     -0.114079
  O      -1.693650     -0.635509     -1.344650
  O      -1.652726     -1.844384      0.456878
  H      -3.074660      0.961403      2.524574
  C      -2.235923      0.375646      0.655734
  H      -0.988829      0.812291      0.997785
  H      -3.844599      1.198081     -0.555990
  C      -2.903961      0.036472      1.972262
  H      -3.874384     -0.451260      1.825042
  C       2.875467      0.709678     -0.654786
  C       3.783520      0.103609     -1.501077
  C       3.584039     -1.227144     -1.853274
  C       2.483459     -1.913090     -1.352205
  C       1.610137     -1.251467     -0.510122
  N       1.823162      0.029657     -0.183749
  H       4.627759      0.664801     -1.874587
  H       4.280931     -1.725473     -2.514143
  H       2.300591     -2.946661     -1.608385
  H      -3.033870      2.344806      0.518279
  H      -2.286470     -0.616223      2.586588
  H       0.729032     -1.715188     -0.087619
  H       2.962775      1.738659     -0.335154
  H       0.272084      0.998557      2.242820
  H       1.095744      0.552611      0.502485
  O       0.155018      1.243516      1.315986
27
Coordinates from ORCA-job /home/rudenko/2025/kie/for_orca/ch32chno2_pyridine/orca/ts_opt/ts_opt E -648.295771833111
  C      -2.884418      1.482077     -0.135198
  H      -2.257306      1.818178     -0.959143
  N      -1.860485     -0.746965     -0.117304
  O      -1.659967     -0.617944     -1.345549
  O      -1.627973     -1.843222      0.445696
  H      -3.074300      0.939365      2.529176
  C      -2.232000      0.370016      0.656815
  H      -0.979597      0.831683      0.990401
  H      -3.852983      1.177710     -0.549084
  C      -2.889483      0.018371      1.974719
  H      -3.851724     -0.486239      1.830055
  C       2.886623      0.707161     -0.647303
  C       3.794909      0.085863     -1.482080
  C       3.576024     -1.240248     -1.840159
  C       2.456094     -1.907245     -1.356270
  C       1.584063     -1.231467     -0.524358
  N       1.815826      0.045120     -0.192830
  H       4.654499      0.632163     -1.842436
  H       4.272815     -1.749689     -2.492584
  H       2.257687     -2.936624     -1.617581
  H      -3.055793      2.330278      0.528944
  H      -2.259222     -0.624957      2.586127
  H       0.689622     -1.680229     -0.113761
  H       2.987370      1.734179     -0.325442
  H       0.270647      1.043251      2.221593
  H       1.092233      0.574676      0.485456
  O       0.146837      1.274739      1.292096
27
Coordinates from ORCA-job /home/rudenko/2025/kie/for_orca/ch32chno2_pyridine/orca/ts_opt/ts_opt E -648.295769675684
  C      -2.880808      1.487430     -0.135486
  H      -2.249955      1.831932     -0.953215
  N      -1.853678     -0.740235     -0.124728
  O      -1.655289     -0.606721     -1.352352
  O      -1.616074     -1.836826      0.435013
  H      -3.075944      0.932192      2.526914
  C      -2.227979      0.373706      0.653668
  H      -0.980736      0.831427      0.993634
  H      -3.845118      1.181291     -0.557760
  C      -2.888833      0.014311      1.968129
  H      -3.850191     -0.490352      1.818185
  C       2.878433      0.708278     -0.652815
  C       3.783202      0.088061     -1.492250
  C       3.569035     -1.241179     -1.841587
  C       2.457312     -1.912192     -1.344575
  C       1.588292     -1.237158     -0.508843
  N       1.815514      0.042353     -0.185730
  H       4.636505      0.637453     -1.862720
  H       4.263101     -1.749925     -2.497456
  H       2.262522     -2.943931     -1.599247
  H      -3.060199      2.330480      0.532983
  H      -2.259456     -0.631508      2.577717
  H       0.699008     -1.688110     -0.089594
  H       2.976106      1.737386     -0.336692
  H       0.271663      1.037559      2.231379
  H       1.092950      0.572518      0.495214
  O       0.150615      1.271760      1.302214
27
Coordinates from ORCA-job /home/rudenko/2025/kie/for_orca/ch32chno2_pyridine/orca/ts_opt/ts_opt E -648.295770598105
  C      -2.885249      1.496671     -0.127552
  H      -2.254700      1.850866     -0.941366
  N      -1.855538     -0.729704     -0.137921
  O      -1.658032     -0.584945     -1.364330
  O      -1.618539     -1.831727      0.411447
  H      -3.074099      0.917858      2.530757
  C      -2.229262      0.377094      0.650949
  H      -0.981602      0.834092      0.990832
  H      -3.848308      1.191796     -0.553481
  C      -2.886518      0.005150      1.963729
  H      -3.847119     -0.500249      1.811591
  C       2.873453      0.708792     -0.662042
  C       3.778217      0.086841     -1.500188
  C       3.570820     -1.246729     -1.836805
  C       2.465702     -1.920340     -1.328714
  C       1.596173     -1.243330     -0.495067
  N       1.816919      0.040357     -0.184201
  H       4.626384      0.638220     -1.879402
  H       4.265073     -1.756857     -2.491405
  H       2.276129     -2.955401     -1.573626
  H      -3.067410      2.332476      0.549168
  H      -2.254437     -0.644646      2.566260
  H       0.710789     -1.695450     -0.068843
  H       2.966044      1.741282     -0.355572
  H       0.270614      1.042220      2.230049
  H       1.093786      0.572080      0.495700
  O       0.150709      1.273581      1.300035
