!  opt B3LYP def2-TZVP CPCM D3 
%pal nprocs 102 end
%cpcm epsilon 78.4 end 
*xyz -1 1 
C   0.75044404 -0.78570466 0.02103457
H   3.07039379 -1.10892561 0.3990925
N   0.74295913 -1.41860221 1.18082238
O   0.70051795 -2.68836421 1.26090177
O   0.80701594 -0.79197741 2.28758975
C   6.67908426 -3.18590003 0.47249205
O   5.97797221 -2.31027909 1.20785516
O   6.29220528 -3.52405171 -0.62807149
C   7.90153989 -3.64395568 1.16959412
H   8.66818125 -4.00741729 0.46378325
H   7.68950416 -4.47846383 1.86226586
H   8.36817953 -2.84818268 1.77573284
C   0.7576648 0.70255462 -0.03112131
H   1.19249533 1.15772524 0.87105636
H   -0.26175437 1.10495474 -0.13208974
H   1.33592032 1.0734493 -0.88976674
C   0.67914793 -1.53781198 -1.26137119
H   -0.33760841 -1.52057931 -1.68045536
H   0.96470436 -2.59421268 -1.14960816
H   1.34732232 -1.10128601 -2.01781357
H   5.1567618 -1.90204892 0.75352551
O   3.96147653 -1.00878417 0.02874811
H   4.203032 -0.08805741 0.21906321
*
