!  NUMFREQ B3LYP def2-TZVP CPCM D3 
%pal nprocs 102 end
%cpcm epsilon 78.4 end 
*xyz 0 1 
C   -2.89239105548574 2.45349902017325 -1.24941269682049
C   -1.88653673625055 1.49344312772319 -1.19081148486341
C   -2.2106152546702 0.14632520380399 -1.02666580045006
C   -3.55071816985355 -0.2252392814536 -0.91140869178796
C   -4.55317377993506 0.73474883050097 -0.97189342539296
C   -4.22674830898565 2.07685719654165 -1.14360827553367
H   -2.63164369162943 3.495758389769 -1.38099001600746
H   -0.84959121926443 1.80091901220157 -1.26354707201041
H   -3.81703635057807 -1.2665542985691 -0.78851005772408
H   -5.00901765682598 2.8237563401233 -1.19647445123631
C   -1.10121213274973 -0.88429120463826 -0.98975272211924
C   -1.10965568944883 -1.76403161022041 0.25346719424318
H   -0.37378620672677 -2.57440022369902 0.1538483549679
H   -2.10440845011762 -2.17201471980174 0.41070918707733
H   -0.81447459088122 -1.14164648421954 1.09078193234853
N   -1.23495210442454 -1.74828280817933 -2.24779724742613
O   -0.5388647423416 -1.45354383070275 -3.20496214945754
O   -2.0399738761596 -2.66389043083469 -2.24350588206541
N   1.94647091538211 0.28271342247948 0.58751667168113
C   2.43101907985937 -1.09394751628072 0.54963412620235
C   2.41143378382228 -1.68432310974046 1.94829104531284
N   3.23420481988052 -0.84875532731058 2.82907448935604
C   2.74466834534084 0.53298382363081 2.86283861116704
C   2.7690599468393 1.1162257519199 1.45337376274858
H   2.36819977919869 2.13155533942572 1.46652372818679
H   3.81710623691325 1.16881917181036 1.11433911535287
H   3.38674534394245 1.11838067798334 3.52335927948464
H   1.71382888588239 0.59476367727806 3.2462900113036
H   2.81899658793442 -2.69661713313033 1.92970563171574
H   1.36472553729353 -1.73985712546382 2.30013671267167
H   3.45734348207964 -1.16066040450147 0.15132613504871
H   -0.14276034083957 -0.38445242797413 -1.15361204395509
H   1.86659815113853 0.63150657055322 -0.35962552516818
H   1.77802080362411 -1.66315670678529 -0.09743893073504
H   3.23488842275182 -1.23414185071469 3.76633094108981
H   2.04803491796464 1.33886212844569 -3.02886553688686
H   1.78856128777585 2.45750486554741 -2.0305676101152
O   1.49819883895762 1.56801327423421 -2.26919863011927
H   -5.59054480941323 0.43317067007478 -0.88889868008399
*
