!  opt B3LYP def2-TZVP CPCM D3 
%pal nprocs 102 end
%cpcm epsilon 78.4 end 
*xyz 0 1 
C   0.09332525 3.37944469 0.97072853
C   0.73200714 2.1432226 0.96667929
C   0.06314942 1.00768673 1.4307303
C   -1.25668627 1.1099265 1.87068576
C   -1.89203435 2.34977066 1.87810267
C   -1.2175047 3.48492249 1.43180314
H   0.62212097 4.26417145 0.61409035
H   1.75919601 2.06547177 0.59909269
H   -1.79999749 0.22479969 2.20867906
H   -1.71514651 4.45546191 1.4418575
C   0.81363199 -0.29712706 1.46242607
C   0.43527326 -1.19321971 2.63396021
H   1.08802039 -2.07430236 2.71418572
H   -0.59933327 -1.56156458 2.57814684
H   0.52904888 -0.63959786 3.58164844
N   0.53180882 -1.03732081 0.18582991
O   1.46790724 -1.27589527 -0.56077597
O   -0.61020875 -1.37766201 -0.07234552
N   5.03035228 0.3952371 4.22696912
C   5.80121612 -0.86252749 4.36820408
C   6.6379468 -0.81157057 5.66526575
N   7.55444452 0.35550557 5.62423977
C   6.7826493 1.61516166 5.48220352
C   5.94136897 1.56569078 4.190262
H   5.31727788 2.48288588 4.11087756
H   6.61392527 1.55332707 3.30603406
H   7.50408746 2.45924601 5.4308782
H   6.11971995 1.80912661 6.3522482
H   7.25581567 -1.7312214 5.75416141
H   5.96005035 -0.78793875 6.54509209
H   6.4666002 -1.05625334 3.50029722
H   1.93333732 -0.09462883 1.49419292
H   4.47448418 0.374805 3.36088924
H   5.07688405 -1.70475634 4.41818596
H   8.10799873 0.38928343 6.48926318
H   4.19048998 1.65726523 1.12110058
H   3.31847778 2.04037991 2.31039329
O   3.605694 1.2782189 1.79185169
H   -2.91805893 2.43403462 2.23873513
*
