39
Coordinates from ORCA-job /home/rudenko/2025/kie/for_orca/c6h5chno2ch3_piperazine/orca/ts_opt/ts_opt E -859.674380931572
  C      -2.892391      2.453499     -1.249413
  C      -1.886537      1.493443     -1.190811
  C      -2.210615      0.146325     -1.026666
  C      -3.550718     -0.225239     -0.911409
  C      -4.553174      0.734749     -0.971893
  C      -4.226748      2.076857     -1.143608
  H      -2.631644      3.495758     -1.380990
  H      -0.849591      1.800919     -1.263547
  H      -3.817036     -1.266554     -0.788510
  H      -5.009018      2.823756     -1.196474
  C      -1.101212     -0.884291     -0.989753
  C      -1.109656     -1.764032      0.253467
  H      -0.373786     -2.574400      0.153848
  H      -2.104408     -2.172015      0.410709
  H      -0.814475     -1.141646      1.090782
  N      -1.234952     -1.748283     -2.247797
  O      -0.538865     -1.453544     -3.204962
  O      -2.039974     -2.663890     -2.243506
  N       1.946471      0.282713      0.587517
  C       2.431019     -1.093948      0.549634
  C       2.411434     -1.684323      1.948291
  N       3.234205     -0.848755      2.829074
  C       2.744668      0.532984      2.862839
  C       2.769060      1.116226      1.453374
  H       2.368200      2.131555      1.466524
  H       3.817106      1.168819      1.114339
  H       3.386745      1.118381      3.523359
  H       1.713829      0.594764      3.246290
  H       2.818997     -2.696617      1.929706
  H       1.364726     -1.739857      2.300137
  H       3.457343     -1.160660      0.151326
  H      -0.142760     -0.384452     -1.153612
  H       1.866598      0.631507     -0.359626
  H       1.778021     -1.663157     -0.097439
  H       3.234888     -1.234142      3.766331
  H       2.048035      1.338862     -3.028866
  H       1.788561      2.457505     -2.030568
  O       1.498199      1.568013     -2.269199
  H      -5.590545      0.433171     -0.888899
39
Coordinates from ORCA-job /home/rudenko/2025/kie/for_orca/c6h5chno2ch3_piperazine/orca/ts_opt/ts_opt E -859.673876487317
  C      -2.905686      2.442442     -1.301836
  C      -1.899694      1.483993     -1.218508
  C      -2.225443      0.145650     -1.020881
  C      -3.564678     -0.222621     -0.889946
  C      -4.567277      0.735948     -0.963141
  C      -4.240384      2.072345     -1.174694
  H      -2.644129      3.480560     -1.461679
  H      -0.863886      1.794784     -1.298141
  H      -3.830672     -1.261766     -0.749266
  H      -5.021637      2.819116     -1.242177
  C      -1.105462     -0.869714     -0.983885
  C      -1.108824     -1.751029      0.255582
  H      -0.380995     -2.560025      0.150548
  H      -2.103182     -2.157907      0.418202
  H      -0.814417     -1.131494      1.090809
  N      -1.251580     -1.743329     -2.233959
  O      -0.566518     -1.454631     -3.200932
  O      -2.054718     -2.660405     -2.213834
  N       1.953298      0.289513      0.599722
  C       2.436041     -1.085474      0.549675
  C       2.424512     -1.688617      1.936587
  N       3.253992     -0.866947      2.819684
  C       2.756406      0.509690      2.879902
  C       2.771988      1.115534      1.480887
  H       2.360544      2.126252      1.511357
  H       3.819263      1.185229      1.142532
  H       3.397679      1.084908      3.550091
  H       1.726089      0.561562      3.266250
  H       2.838645     -2.697834      1.901914
  H       1.385839     -1.751854      2.297797
  H       3.462857     -1.144734      0.151520
  H      -0.148371     -0.373429     -1.154444
  H       1.872802      0.641864     -0.344235
  H       1.791990     -1.641416     -0.099715
  H       3.267698     -1.264253      3.751847
  H       2.072099      1.354397     -3.025496
  H       1.794495      2.468158     -2.036468
  O       1.515554      1.578344     -2.275078
  H      -5.604238      0.437187     -0.866592
39
Coordinates from ORCA-job /home/rudenko/2025/kie/for_orca/c6h5chno2ch3_piperazine/orca/ts_opt/ts_opt E -859.672739471949
  C      -2.916506      2.428697     -1.367254
  C      -1.915545      1.465866     -1.261437
  C      -2.245433      0.142524     -1.016482
  C      -3.583265     -0.215038     -0.854247
  C      -4.582520      0.744694     -0.950836
  C      -4.251828      2.071609     -1.215533
  H      -2.650439      3.458982     -1.566666
  H      -0.882591      1.771858     -1.353448
  H      -3.851384     -1.247842     -0.675462
  H      -5.029606      2.819953     -1.301917
  C      -1.115383     -0.858064     -0.976242
  C      -1.101991     -1.740687      0.259896
  H      -0.381437     -2.548426      0.145236
  H      -2.094572     -2.147737      0.432856
  H      -0.806654     -1.123448      1.096256
  N      -1.266543     -1.742451     -2.222918
  O      -0.604163     -1.443352     -3.202965
  O      -2.085467     -2.645239     -2.202206
  N       1.958126      0.297558      0.616494
  C       2.444998     -1.073000      0.551797
  C       2.447683     -1.696640      1.921306
  N       3.278710     -0.886439      2.811313
  C       2.764495      0.482531      2.901367
  C       2.767683      1.116720      1.515112
  H       2.338269      2.119257      1.565336
  H       3.812955      1.211559      1.177411
  H       3.400140      1.049308      3.583837
  H       1.733899      0.517355      3.290100
  H       2.876269     -2.699558      1.863310
  H       1.417088     -1.776954      2.295582
  H       3.474080     -1.117182      0.154241
  H      -0.159767     -0.364149     -1.156481
  H       1.874322      0.655086     -0.321318
  H       1.811595     -1.614456     -0.107441
  H       3.310569     -1.297605      3.737044
  H       2.107055      1.369095     -3.017918
  H       1.791522      2.476553     -2.039457
  O       1.534673      1.584208     -2.279919
  H      -5.619038      0.454856     -0.828348
39
Coordinates from ORCA-job /home/rudenko/2025/kie/for_orca/c6h5chno2ch3_piperazine/orca/ts_opt/ts_opt E -859.674592704802
  C      -2.899151      2.449011     -1.303903
  C      -1.901666      1.479810     -1.240474
  C      -2.234346      0.142091     -1.037056
  C      -3.574729     -0.215314     -0.889918
  C      -4.569474      0.751802     -0.958600
  C      -4.234632      2.087213     -1.169546
  H      -2.630539      3.486083     -1.461408
  H      -0.865277      1.778802     -1.330090
  H      -3.847284     -1.250984     -0.736383
  H      -5.010808      2.839923     -1.225664
  C      -1.121906     -0.883142     -0.994300
  C      -1.116882     -1.767206      0.245470
  H      -0.392010     -2.575335      0.141165
  H      -2.108128     -2.178523      0.418163
  H      -0.823532     -1.142061      1.086769
  N      -1.261368     -1.757424     -2.249458
  O      -0.561078     -1.474699     -3.208493
  O      -2.040138     -2.695372     -2.223881
  N       1.951760      0.287440      0.607746
  C       2.441968     -1.086768      0.554898
  C       2.439357     -1.691580      1.945844
  N       3.265445     -0.860634      2.827130
  C       2.758630      0.513762      2.885267
  C       2.764444      1.119048      1.486538
  H       2.343989      2.126198      1.517197
  H       3.809303      1.197448      1.142798
  H       3.397447      1.096312      3.551565
  H       1.729031      0.558066      3.275722
  H       2.859800     -2.698950      1.912112
  H       1.402091     -1.762548      2.308948
  H       3.469580     -1.140181      0.156513
  H      -0.170570     -0.387050     -1.161867
  H       1.869201      0.647953     -0.335420
  H       1.791371     -1.650538     -0.111081
  H       3.285328     -1.255797      3.760017
  H       2.089290      1.374133     -3.028693
  H       1.783107      2.486342     -2.031781
  O       1.518963      1.590450     -2.279412
  H      -5.606587      0.462222     -0.846434
39
Coordinates from ORCA-job /home/rudenko/2025/kie/for_orca/c6h5chno2ch3_piperazine/orca/ts_opt/ts_opt E -859.674242618147
  C      -2.908076      2.445106     -1.354164
  C      -1.915541      1.470968     -1.279955
  C      -2.252211      0.141421     -1.038938
  C      -3.591727     -0.206126     -0.865267
  C      -4.581857      0.764601     -0.945831
  C      -4.243258      2.093278     -1.194536
  H      -2.635972      3.476558     -1.539905
  H      -0.878157      1.761585     -1.384291
  H      -3.866910     -1.236286     -0.681430
  H      -5.016619      2.848121     -1.259724
  C      -1.138846     -0.880482     -0.992741
  C      -1.119655     -1.765988      0.244805
  H      -0.398265     -2.575519      0.133800
  H      -2.108412     -2.179117      0.429889
  H      -0.825259     -1.141737      1.087103
  N      -1.281299     -1.760700     -2.247188
  O      -0.568432     -1.492628     -3.201469
  O      -2.047907     -2.708021     -2.211295
  N       1.956233      0.292504      0.623225
  C       2.452482     -1.078774      0.555963
  C       2.461274     -1.700807      1.937869
  N       3.285922     -0.873059      2.823896
  C       2.765806      0.495549      2.902205
  C       2.760784      1.120809      1.512598
  H       2.326534      2.121588      1.558058
  H       3.803466      1.218304      1.167087
  H       3.400238      1.074882      3.575389
  H       1.736780      0.524794      3.296059
  H       2.892887     -2.702925      1.888674
  H       1.428494     -1.787411      2.309931
  H       3.481012     -1.119779      0.156927
  H      -0.189098     -0.385049     -1.166693
  H       1.870106      0.662373     -0.315713
  H       1.807471     -1.635090     -0.122957
  H       3.318093     -1.277988      3.752086
  H       2.124529      1.399885     -3.024111
  H       1.777404      2.506176     -2.032055
  O       1.536692      1.605411     -2.285390
  H      -5.618705      0.483572     -0.811913
39
Coordinates from ORCA-job /home/rudenko/2025/kie/for_orca/c6h5chno2ch3_piperazine/orca/ts_opt/ts_opt E -859.674631544250
  C      -2.894616      2.450592     -1.294727
  C      -1.898581      1.479629     -1.236986
  C      -2.232423      0.141447     -1.039143
  C      -3.573226     -0.215544     -0.894438
  C      -4.566770      0.753103     -0.958675
  C      -4.230402      2.089468     -1.161822
  H      -2.624577      3.488120     -1.446547
  H      -0.861516      1.776264     -1.326319
  H      -3.846844     -1.251672     -0.745223
  H      -5.005773      2.843310     -1.213608
  C      -1.121867     -0.885392     -0.996129
  C      -1.117163     -1.769902      0.242733
  H      -0.392412     -2.577515      0.139980
  H      -2.107687     -2.182995      0.416269
  H      -0.825770     -1.144433      1.085078
  N      -1.260136     -1.758607     -2.252209
  O      -0.556406     -1.476640     -3.209074
  O      -2.030029     -2.703679     -2.223922
  N       1.948301      0.285395      0.604342
  C       2.438693     -1.089080      0.554205
  C       2.436166     -1.689783      1.947712
  N       3.262803     -0.856099      2.826144
  C       2.756214      0.518464      2.880853
  C       2.760877      1.119462      1.480742
  H       2.340015      2.126526      1.508584
  H       3.805411      1.197283      1.135649
  H       3.395686      1.103348      3.544494
  H       1.727004      0.563604      3.272286
  H       2.855690     -2.697585      1.917997
  H       1.398388     -1.758974      2.309507
  H       3.466070     -1.143707      0.155810
  H      -0.170628     -0.389132     -1.161164
  H       1.867148      0.646616     -0.338462
  H       1.787856     -1.654920     -0.111352
  H       3.283124     -1.248884      3.759958
  H       2.089425      1.373615     -3.024094
  H       1.783170      2.484693     -2.025435
  O       1.519001      1.589503     -2.274892
  H      -5.604214      0.464102     -0.848122
39
Coordinates from ORCA-job /home/rudenko/2025/kie/for_orca/c6h5chno2ch3_piperazine/orca/ts_opt/ts_opt E -859.674760363177
  C      -2.880538      2.454468     -1.239220
  C      -1.882184      1.485642     -1.194903
  C      -2.214274      0.141462     -1.037109
  C      -3.556155     -0.222524     -0.920045
  C      -4.552028      0.744672     -0.970465
  C      -4.216946      2.086724     -1.132129
  H      -2.611606      3.496325     -1.360299
  H      -0.845013      1.786134     -1.268900
  H      -3.828846     -1.263045     -0.803352
  H      -4.993608      2.839934     -1.172788
  C      -1.105122     -0.888354     -0.997685
  C      -1.112559     -1.773163      0.241178
  H      -0.384705     -2.578572      0.145095
  H      -2.104134     -2.187514      0.404074
  H      -0.825085     -1.147561      1.084658
  N      -1.239134     -1.754667     -2.256034
  O      -0.541480     -1.460777     -3.213702
  O      -2.003073     -2.704789     -2.231687
  N       1.938251      0.278904      0.584684
  C       2.422982     -1.098423      0.551170
  C       2.411014     -1.678854      1.954484
  N       3.240379     -0.840148      2.825093
  C       2.745771      0.539275      2.858897
  C       2.757866      1.118281      1.449730
  H       2.347843      2.130093      1.461629
  H       3.803599      1.179755      1.104866
  H       3.389991      1.128905      3.513760
  H       1.716671      0.598655      3.248412
  H       2.819597     -2.691395      1.942677
  H       1.368867     -1.732031      2.306802
  H       3.449280     -1.165179      0.153189
  H      -0.152527     -0.391407     -1.153866
  H       1.862388      0.631723     -0.361878
  H       1.766998     -1.672942     -0.101466
  H       3.251817     -1.221571      3.763840
  H       2.055825      1.347339     -3.019871
  H       1.787836      2.462011     -2.015472
  O       1.502056      1.572700     -2.261107
  H      -5.590016      0.449913     -0.882260
39
Coordinates from ORCA-job /home/rudenko/2025/kie/for_orca/c6h5chno2ch3_piperazine/orca/ts_opt/ts_opt E -859.674732878488
  C      -2.866298      2.457893     -1.180603
  C      -1.866155      1.490567     -1.150023
  C      -2.200727      0.138471     -1.036730
  C      -3.544525     -0.228419     -0.954267
  C      -4.540267      0.739545     -0.990610
  C      -4.203792      2.086013     -1.104384
  H      -2.597452      3.503197     -1.267569
  H      -0.826860      1.797696     -1.208250
  H      -3.818970     -1.271999     -0.874928
  H      -4.980379      2.839829     -1.133764
  C      -1.094711     -0.897826     -1.000266
  C      -1.117327     -1.786239      0.240220
  H      -0.383899     -2.590186      0.152881
  H      -2.109338     -2.203662      0.390590
  H      -0.836279     -1.159512      1.084755
  N      -1.223710     -1.756031     -2.261514
  O      -0.538293     -1.443786     -3.222250
  O      -1.973381     -2.717717     -2.239520
  N       1.935032      0.274037      0.570562
  C       2.412286     -1.108563      0.552440
  C       2.390258     -1.667282      1.966721
  N       3.224173     -0.823131      2.828166
  C       2.744514      0.562129      2.839615
  C       2.763458      1.118749      1.421355
  H       2.365476      2.135410      1.417186
  H       3.809544      1.162796      1.074931
  H       3.395060      1.155872      3.484490
  H       1.716111      0.637598      3.227899
  H       2.785990     -2.684877      1.974828
  H       1.341439     -1.703394      2.308731
  H       3.436541     -1.188666      0.152959
  H      -0.141643     -0.399188     -1.146430
  H       1.863760      0.618899     -0.383003
  H       1.746804     -1.696071     -0.087233
  H       3.226689     -1.191944      3.772079
  H       2.013999      1.335339     -3.025988
  H       1.790786      2.454098     -2.011736
  O       1.481429      1.568564     -2.252130
  H      -5.579344      0.441790     -0.929208
39
Coordinates from ORCA-job /home/rudenko/2025/kie/for_orca/c6h5chno2ch3_piperazine/orca/ts_opt/ts_opt E -859.674642501516
  C      -2.852127      2.457521     -1.125167
  C      -1.851215      1.490945     -1.105805
  C      -2.186957      0.135668     -1.035409
  C      -3.531516     -0.233236     -0.985302
  C      -4.527778      0.734787     -1.009760
  C      -4.190563      2.083729     -1.079471
  H      -2.582813      3.504957     -1.179369
  H      -0.812634      1.801793     -1.144830
  H      -3.806518     -1.278775     -0.940083
  H      -4.966875      2.838159     -1.099034
  C      -1.081737     -0.902806     -1.000730
  C      -1.118329     -1.792987      0.239134
  H      -0.381436     -2.594206      0.159726
  H      -2.110934     -2.212966      0.376287
  H      -0.844741     -1.165770      1.085865
  N      -1.204944     -1.754063     -2.264863
  O      -0.536323     -1.420213     -3.230296
  O      -1.935834     -2.730287     -2.243870
  N       1.929274      0.269484      0.554061
  C       2.397455     -1.116772      0.552132
  C       2.367771     -1.654522      1.975005
  N       3.207364     -0.807759      2.827420
  C       2.741703      0.582093      2.819467
  C       2.766185      1.117880      1.393312
  H       2.378472      2.138302      1.374627
  H       3.812505      1.146957      1.046110
  H       3.398445      1.178484      3.455611
  H       1.714175      0.673020      3.206454
  H       2.750706     -2.676637      2.000535
  H       1.315643     -1.673164      2.308326
  H       3.419426     -1.209922      0.151092
  H      -0.127496     -0.403789     -1.136730
  H       1.863486      0.604110     -0.404128
  H       1.725026     -1.712798     -0.072694
  H       3.203227     -1.164746      3.775903
  H       1.971764      1.317347     -3.025190
  H       1.793683      2.437083     -2.005853
  O       1.461898      1.558196     -2.238913
  H      -5.567438      0.434906     -0.973572
39
Coordinates from ORCA-job /home/rudenko/2025/kie/for_orca/c6h5chno2ch3_piperazine/orca/ts_opt/ts_opt E -859.674568853632
  C      -2.835059      2.455681     -1.064460
  C      -1.835373      1.487782     -1.061998
  C      -2.174204      0.131039     -1.038872
  C      -3.519739     -0.236535     -1.023246
  C      -4.514583      0.733443     -1.033015
  C      -4.174643      2.083183     -1.051704
  H      -2.563646      3.503895     -1.080251
  H      -0.796235      1.799160     -1.080518
  H      -3.796838     -1.282601     -1.013723
  H      -4.949435      2.839406     -1.057846
  C      -1.071990     -0.911771     -1.003287
  C      -1.121910     -1.803668      0.235655
  H      -0.381686     -2.601906      0.165699
  H      -2.114652     -2.227154      0.359609
  H      -0.858418     -1.175122      1.085340
  N      -1.187019     -1.756216     -2.271237
  O      -0.543860     -1.393563     -3.243697
  O      -1.897034     -2.747884     -2.252486
  N       1.924166      0.264084      0.539576
  C       2.383230     -1.125218      0.554881
  C       2.347987     -1.640256      1.986985
  N       3.193037     -0.788790      2.828852
  C       2.741303      0.605252      2.799024
  C       2.770057      1.117563      1.364559
  H       2.392637      2.141423      1.329591
  H       3.816119      1.130802      1.015665
  H       3.404556      1.205527      3.424702
  H       1.715077      0.712242      3.185227
  H       2.719091     -2.666046      2.030901
  H       1.292834     -1.642376      2.313024
  H       3.402837     -1.231529      0.152024
  H      -0.116912     -0.412272     -1.127190
  H       1.862725      0.588739     -0.423606
  H       1.703722     -1.730020     -0.056023
  H       3.182626     -1.131958      3.782391
  H       1.925145      1.302403     -3.023864
  H       1.791740      2.420723     -1.998710
  O       1.439364      1.548319     -2.224450
  H      -5.555017      0.434222     -1.023522
39
Coordinates from ORCA-job /home/rudenko/2025/kie/for_orca/c6h5chno2ch3_piperazine/orca/ts_opt/ts_opt E -859.674430093586
  C      -2.820570      2.452545     -1.009061
  C      -1.821957      1.483670     -1.019317
  C      -2.162140      0.128060     -1.040030
  C      -3.507729     -0.238382     -1.056990
  C      -4.501862      0.732598     -1.054898
  C      -4.160637      2.081788     -1.027951
  H      -2.547839      3.500386     -0.990031
  H      -0.782939      1.793125     -1.015942
  H      -3.785479     -1.284262     -1.080393
  H      -4.934505      2.838972     -1.023585
  C      -1.061442     -0.916361     -1.003972
  C      -1.123652     -1.809637      0.232122
  H      -0.380822     -2.605414      0.170254
  H      -2.116697     -2.236217      0.342819
  H      -0.871402     -1.181457      1.085580
  N      -1.169817     -1.754723     -2.275707
  O      -0.553395     -1.365099     -3.255126
  O      -1.846945     -2.769118     -2.253788
  N       1.917605      0.258661      0.523608
  C       2.366823     -1.133294      0.557001
  C       2.327861     -1.627041      1.996692
  N       3.179425     -0.772464      2.827682
  C       2.740823      0.625124      2.778192
  C       2.772293      1.115854      1.336371
  H       2.403901      2.142404      1.286732
  H       3.817936      1.114973      0.985975
  H       3.410647      1.228191      3.394157
  H       1.716224      0.747559      3.164078
  H       2.687808     -2.655955      2.056565
  H       1.271725     -1.612992      2.317800
  H       3.384207     -1.252709      0.152561
  H      -0.104382     -0.417130     -1.116295
  H       1.861270      0.572901     -0.442702
  H       1.681927     -1.743687     -0.039947
  H       3.164744     -1.102506      3.785785
  H       1.881263      1.287230     -3.019556
  H       1.791019      2.402784     -1.989214
  O       1.419195      1.537278     -2.208000
  H      -5.542486      0.434344     -1.071472
39
Coordinates from ORCA-job /home/rudenko/2025/kie/for_orca/c6h5chno2ch3_piperazine/orca/ts_opt/ts_opt E -859.674238063114
  C      -2.804059      2.448067     -0.946312
  C      -1.807743      1.477268     -0.975420
  C      -2.150911      0.124005     -1.046105
  C      -3.496714     -0.237839     -1.099028
  C      -4.488391      0.735651     -1.081960
  C      -4.144511      2.081994     -1.000650
  H      -2.529169      3.493775     -0.885772
  H      -0.767503      1.782240     -0.949742
  H      -3.776517     -1.282001     -1.157917
  H      -4.916602      2.840771     -0.981833
  C      -1.055160     -0.925836     -1.007933
  C      -1.130189     -1.821460      0.225391
  H      -0.383823     -2.614934      0.173539
  H      -2.122947     -2.252210      0.322648
  H      -0.891861     -1.192569      1.083199
  N      -1.154504     -1.756990     -2.284805
  O      -0.561801     -1.341193     -3.268132
  O      -1.800874     -2.791314     -2.264000
  N       1.912241      0.251301      0.510481
  C       2.352124     -1.143043      0.563681
  C       2.311178     -1.612082      2.012556
  N       3.169155     -0.751452      2.830239
  C       2.744160      0.649349      2.756886
  C       2.777173      1.114048      1.306629
  H       2.419097      2.143264      1.239235
  H       3.821813      1.096279      0.953665
  H       3.421385      1.256868      3.360284
  H       1.721819      0.788621      3.143059
  H       2.660852     -2.643287      2.090168
  H       1.254012     -1.583016      2.330179
  H       3.367198     -1.276421      0.158057
  H      -0.096643     -0.426542     -1.106515
  H       1.859252      0.556379     -0.460201
  H       1.660629     -1.760652     -0.020872
  H       3.149887     -1.065542      3.793594
  H       1.829596      1.278927     -3.017476
  H       1.783765      2.388833     -1.980001
  O       1.393850      1.529484     -2.191816
  H      -5.529266      0.441260     -1.126998
39
Coordinates from ORCA-job /home/rudenko/2025/kie/for_orca/c6h5chno2ch3_piperazine/orca/ts_opt/ts_opt E -859.674066693532
  C      -2.791460      2.441898     -0.890721
  C      -1.796696      1.469974     -0.932101
  C      -2.140889      0.120776     -1.048789
  C      -3.485900     -0.236837     -1.136678
  C      -4.476076      0.738054     -1.109282
  C      -4.131408      2.080550     -0.980314
  H      -2.515798      3.484634     -0.793525
  H      -0.756094      1.769327     -0.882671
  H      -3.766138     -1.278708     -1.228393
  H      -4.902471      2.840079     -0.951970
  C      -1.048108     -0.931889     -1.009421
  C      -1.135366     -1.830352      0.219765
  H      -0.386074     -2.621323      0.176578
  H      -2.127882     -2.265027      0.302868
  H      -0.911797     -1.202570      1.082540
  N      -1.138068     -1.755443     -2.291573
  O      -0.581287     -1.306847     -3.281445
  O      -1.750083     -2.810458     -2.271988
  N       1.907358      0.243860      0.498238
  C       2.336832     -1.152674      0.571354
  C       2.295264     -1.598322      2.027712
  N       3.161365     -0.733371      2.831431
  C       2.750074      0.670292      2.736343
  C       2.783253      1.110683      1.278625
  H       2.435276      2.142165      1.194899
  H       3.826562      1.076531      0.922970
  H       3.435229      1.280784      3.327720
  H       1.730460      0.826330      3.123312
  H       2.635152     -2.631499      2.120982
  H       1.238502     -1.554310      2.344495
  H       3.349544     -1.300234      0.164657
  H      -0.087818     -0.433470     -1.094991
  H       1.857545      0.539183     -0.475545
  H       1.639684     -1.774857     -0.000641
  H       3.139163     -1.032103      3.799573
  H       1.778085      1.271367     -3.014747
  H       1.777058      2.374477     -1.970928
  O       1.369442      1.521726     -2.175442
  H      -5.516430      0.447603     -1.182897
39
Coordinates from ORCA-job /home/rudenko/2025/kie/for_orca/c6h5chno2ch3_piperazine/orca/ts_opt/ts_opt E -859.673829728359
  C      -2.785123      2.436772     -0.841863
  C      -1.790534      1.464917     -0.888830
  C      -2.133066      0.119803     -1.047027
  C      -3.476325     -0.235480     -1.170389
  C      -4.466490      0.739313     -1.137816
  C      -4.123553      2.078339     -0.967163
  H      -2.510629      3.476848     -0.712943
  H      -0.750285      1.758977     -0.814280
  H      -3.754984     -1.275246     -1.293046
  H      -4.894819      2.837507     -0.934651
  C      -1.041533     -0.933628     -1.007522
  C      -1.139981     -1.836069      0.216329
  H      -0.388467     -2.624737      0.179831
  H      -2.132329     -2.274397      0.285046
  H      -0.931056     -1.211490      1.085134
  N      -1.122043     -1.748658     -2.295546
  O      -0.600507     -1.267168     -3.290243
  O      -1.688335     -2.830087     -2.275502
  N       1.903499      0.236091      0.486653
  C       2.320858     -1.162849      0.579192
  C       2.280058     -1.586840      2.041847
  N       3.156599     -0.719285      2.830809
  C       2.759268      0.687199      2.716407
  C       2.791271      1.105300      1.252082
  H       2.453341      2.139008      1.153873
  H       3.832871      1.055195      0.892991
  H       3.452996      1.299359      3.296146
  H       1.742832      0.859785      3.105117
  H       2.610063     -2.622055      2.148687
  H       1.224758     -1.527600      2.360553
  H       3.330909     -1.325108      0.170990
  H      -0.078771     -0.437181     -1.081422
  H       1.856800      0.521685     -0.489859
  H       1.617768     -1.787677      0.019723
  H       3.133461     -1.003539      3.803380
  H       1.727478      1.265206     -3.013105
  H       1.772752      2.360917     -1.962838
  O       1.346788      1.515351     -2.160302
  H      -5.505537      0.451524     -1.240443
39
Coordinates from ORCA-job /home/rudenko/2025/kie/for_orca/c6h5chno2ch3_piperazine/orca/ts_opt/ts_opt E -859.673008665501
  C      -2.795676      2.431409     -0.771563
  C      -1.795841      1.466265     -0.823517
  C      -2.130119      0.125412     -1.037936
  C      -3.469480     -0.234609     -1.221868
  C      -4.464788      0.733035     -1.192459
  C      -4.130671      2.068807     -0.958143
  H      -2.528172      3.468832     -0.595930
  H      -0.757669      1.759342     -0.716353
  H      -3.740740     -1.273594     -1.395163
  H      -4.906244      2.821947     -0.927471
  C      -1.038514     -0.926446     -1.000412
  C      -1.151937     -1.834274      0.217166
  H      -0.401012     -2.623469      0.188554
  H      -2.145510     -2.272598      0.270938
  H      -0.957537     -1.213563      1.092168
  N      -1.111140     -1.728188     -2.296630
  O      -0.609327     -1.226120     -3.286918
  O      -1.613122     -2.850797     -2.270702
  N       1.909459      0.224821      0.474582
  C       2.305375     -1.179218      0.590748
  C       2.263955     -1.575229      2.061541
  N       3.157418     -0.707377      2.831265
  C       2.785295      0.705134      2.691154
  C       2.818279      1.093185      1.218325
  H       2.499476      2.131959      1.100625
  H       3.857606      1.015728      0.853724
  H       3.493382      1.316402      3.255189
  H       1.773329      0.905140      3.081892
  H       2.577277     -2.614383      2.185505
  H       1.210936     -1.493042      2.384317
  H       3.311466     -1.364017      0.179970
  H      -0.071398     -0.436261     -1.062387
  H       1.864974      0.499570     -0.504925
  H       1.591661     -1.805121      0.047237
  H       3.130710     -0.972199      3.809690
  H       1.667548      1.260759     -3.017969
  H       1.776917      2.348614     -1.958487
  O       1.324600      1.512440     -2.146646
  H      -5.500765      0.441705     -1.349110
39
Coordinates from ORCA-job /home/rudenko/2025/kie/for_orca/c6h5chno2ch3_piperazine/orca/ts_opt/ts_opt E -859.674142129510
  C      -2.795304      2.435820     -0.832557
  C      -1.800780      1.464082     -0.884455
  C      -2.140576      0.120295     -1.047727
  C      -3.484056     -0.236824     -1.186357
  C      -4.475069      0.736759     -1.155628
  C      -4.133216      2.076331     -0.968340
  H      -2.521127      3.476048     -0.692247
  H      -0.762531      1.757558     -0.808220
  H      -3.762062     -1.277325     -1.321382
  H      -4.905044      2.834721     -0.933664
  C      -1.049863     -0.933722     -1.006622
  C      -1.150455     -1.836849      0.214688
  H      -0.399903     -2.627256      0.180467
  H      -2.142976     -2.275665      0.283076
  H      -0.948224     -1.213416      1.085947
  N      -1.124012     -1.748509     -2.296696
  O      -0.625644     -1.245124     -3.298140
  O      -1.687163     -2.830842     -2.281436
  N       1.911485      0.229966      0.490738
  C       2.324156     -1.169361      0.589685
  C       2.287345     -1.587242      2.055024
  N       3.169255     -0.716872      2.836222
  C       2.775410      0.690489      2.716882
  C       2.803573      1.100578      1.250473
  H       2.467570      2.134807      1.147828
  H       3.844107      1.046265      0.887993
  H       3.473170      1.304318      3.290915
  H       1.760786      0.868327      3.109014
  H       2.617007     -2.622230      2.163945
  H       1.236144     -1.525995      2.382330
  H       3.334205     -1.335727      0.182329
  H      -0.084239     -0.440279     -1.078752
  H       1.865451      0.516979     -0.483173
  H       1.621486     -1.791623      0.029968
  H       3.149451     -0.995503      3.810737
  H       1.731609      1.276498     -3.023748
  H       1.780171      2.368846     -1.968376
  O       1.354089      1.523938     -2.168911
  H      -5.514225      0.447737     -1.271832
39
Coordinates from ORCA-job /home/rudenko/2025/kie/for_orca/c6h5chno2ch3_piperazine/orca/ts_opt/ts_opt E -859.674052725868
  C      -2.795412      2.429926     -0.807098
  C      -1.800635      1.458048     -0.875653
  C      -2.137529      0.116529     -1.066533
  C      -3.477616     -0.236949     -1.207530
  C      -4.467901      0.738446     -1.149958
  C      -4.129809      2.073841     -0.942327
  H      -2.523228      3.467180     -0.644341
  H      -0.762785      1.748505     -0.786374
  H      -3.752714     -1.273178     -1.350535
  H      -4.902006      2.833002     -0.883978
  C      -1.051317     -0.940718     -1.021435
  C      -1.165327     -1.846489      0.195193
  H      -0.412431     -2.636008      0.170692
  H      -2.157736     -2.289664      0.252525
  H      -0.981596     -1.224291      1.072105
  N      -1.112015     -1.751350     -2.315737
  O      -0.609651     -1.247976     -3.305660
  O      -1.686704     -2.814979     -2.323312
  N       1.914024      0.220243      0.486974
  C       2.319671     -1.179729      0.605367
  C       2.279850     -1.577992      2.078126
  N       3.165833     -0.700454      2.847235
  C       2.779722      0.707946      2.707579
  C       2.810642      1.096462      1.235168
  H       2.480405      2.131481      1.116791
  H       3.850460      1.030522      0.872803
  H       3.480539      1.326504      3.272497
  H       1.766549      0.897474      3.097544
  H       2.605738     -2.613249      2.200962
  H       1.230398     -1.508173      2.408649
  H       3.330234     -1.356236      0.203914
  H      -0.082715     -0.449765     -1.082464
  H       1.872967      0.504554     -0.487503
  H       1.618075     -1.804419      0.048197
  H       3.142727     -0.964809      3.826207
  H       1.720671      1.283699     -3.036977
  H       1.788040      2.369616     -1.975204
  O       1.355448      1.528494     -2.176768
  H      -5.502864      0.453956     -1.259142
39
Coordinates from ORCA-job /home/rudenko/2025/kie/for_orca/c6h5chno2ch3_piperazine/orca/ts_opt/ts_opt E -859.674008041996
  C      -2.815508      2.438550     -0.850903
  C      -1.819238      1.468188     -0.912631
  C      -2.157404      0.122778     -1.073583
  C      -3.498996     -0.237243     -1.185547
  C      -4.490943      0.734953     -1.136713
  C      -4.152549      2.075058     -0.964088
  H      -2.543742      3.479215     -0.713966
  H      -0.779772      1.761821     -0.842413
  H      -3.773015     -1.277524     -1.303191
  H      -4.925842      2.831999     -0.913466
  C      -1.070869     -0.930471     -1.024471
  C      -1.178385     -1.835121      0.192878
  H      -0.428528     -2.627558      0.162792
  H      -2.170674     -2.275913      0.262700
  H      -0.989230     -1.212637      1.068102
  N      -1.134886     -1.743848     -2.316862
  O      -0.561303     -1.298841     -3.275861
  O      -1.714126     -2.818224     -2.316693
  N       1.925107      0.223903      0.503730
  C       2.337046     -1.174664      0.606500
  C       2.301794     -1.591725      2.073560
  N       3.186850     -0.718181      2.848376
  C       2.793023      0.689669      2.727375
  C       2.818417      1.096712      1.260384
  H       2.482564      2.131277      1.155401
  H       3.858497      1.040572      0.894918
  H       3.492428      1.304586      3.298138
  H       1.779477      0.869306      3.122387
  H       2.635729     -2.625776      2.181506
  H       1.255111     -1.534535      2.413629
  H       3.349750     -1.341903      0.205315
  H      -0.101105     -0.442587     -1.092220
  H       1.878162      0.519662     -0.466341
  H       1.641043     -1.791552      0.036729
  H       3.169749     -0.994332      3.823778
  H       1.762479      1.301912     -3.045349
  H       1.791867      2.392613     -1.982884
  O       1.375315      1.545261     -2.193571
  H      -5.528294      0.444597     -1.227446
39
Coordinates from ORCA-job /home/rudenko/2025/kie/for_orca/c6h5chno2ch3_piperazine/orca/ts_opt/ts_opt E -859.674706076567
  C      -2.817686      2.443040     -0.919844
  C      -1.823947      1.469543     -0.963905
  C      -2.166181      0.120459     -1.064401
  C      -3.511192     -0.240851     -1.137911
  C      -4.500990      0.734258     -1.108880
  C      -4.157020      2.079004     -0.993200
  H      -2.541752      3.487275     -0.829980
  H      -0.783173      1.764869     -0.926939
  H      -3.789743     -1.283671     -1.215586
  H      -4.928616      2.838487     -0.959886
  C      -1.075554     -0.929969     -1.018151
  C      -1.162850     -1.827775      0.206114
  H      -0.416570     -2.621966      0.164629
  H      -2.155082     -2.264511      0.296021
  H      -0.952134     -1.202050      1.073790
  N      -1.156925     -1.756324     -2.302650
  O      -0.579781     -1.323781     -3.278963
  O      -1.794413     -2.784212     -2.302386
  N       1.925328      0.235692      0.517792
  C       2.355750     -1.159272      0.592642
  C       2.324632     -1.607997      2.049217
  N       3.195406     -0.738091      2.844300
  C       2.779109      0.665364      2.753236
  C       2.801757      1.106014      1.295667
  H       2.448410      2.136837      1.213280
  H       3.843580      1.075732      0.933213
  H       3.466540      1.278235      3.339955
  H       1.761599      0.819619      3.148644
  H       2.674544     -2.639075      2.135859
  H       1.276265     -1.573339      2.388576
  H       3.371648     -1.304592      0.190519
  H      -0.110075     -0.438192     -1.102669
  H       1.873871      0.543062     -0.448537
  H       1.667351     -1.771774      0.007781
  H       3.183793     -1.035747      3.813636
  H       1.823122      1.307087     -3.036662
  H       1.791128      2.406146     -1.982661
  O       1.400083      1.549102     -2.201855
  H      -5.540234      0.443366     -1.169803
39
Coordinates from ORCA-job /home/rudenko/2025/kie/for_orca/c6h5chno2ch3_piperazine/orca/ts_opt/ts_opt E -859.674901782236
  C      -2.813626      2.447234     -1.000265
  C      -1.824412      1.467821     -1.030252
  C      -2.172008      0.117860     -1.066430
  C      -3.516648     -0.238001     -1.079588
  C      -4.500950      0.744624     -1.054418
  C      -4.152323      2.089629     -1.010925
  H      -2.533297      3.492927     -0.961175
  H      -0.781141      1.758009     -1.026616
  H      -3.798083     -1.278714     -1.100093
  H      -4.920283      2.855098     -0.981800
  C      -1.079112     -0.929681     -1.019985
  C      -1.145858     -1.820265      0.211050
  H      -0.401580     -2.615565      0.159195
  H      -2.137032     -2.254799      0.321133
  H      -0.915542     -1.191467      1.071589
  N      -1.168795     -1.768808     -2.296380
  O      -0.564447     -1.362277     -3.270717
  O      -1.826012     -2.796396     -2.282807
  N       1.915708      0.247918      0.527305
  C       2.367687     -1.141786      0.574296
  C       2.338475     -1.622954      2.019820
  N       3.191859     -0.757099      2.837111
  C       2.750947      0.640020      2.775967
  C       2.771993      1.115521      1.328900
  H       2.399939      2.141140      1.269477
  H       3.815707      1.112804      0.971654
  H       3.424337      1.250799      3.380472
  H       1.729299      0.766265      3.169444
  H       2.704725     -2.649961      2.085822
  H       1.288213     -1.611381      2.354756
  H       3.386748     -1.263718      0.173169
  H      -0.118324     -0.433275     -1.118867
  H       1.860576      0.568681     -0.434474
  H       1.689999     -1.749835     -0.026857
  H       3.183801     -1.077169      3.799243
  H       1.884890      1.314462     -3.020563
  H       1.781506      2.419602     -1.979607
  O       1.422080      1.552462     -2.207763
  H      -5.539019      0.460276     -1.060822
39
Coordinates from ORCA-job /home/rudenko/2025/kie/for_orca/c6h5chno2ch3_piperazine/orca/ts_opt/ts_opt E -859.675096126491
  C      -2.820195      2.452769     -1.054474
  C      -1.835001      1.470422     -1.065491
  C      -2.189177      0.121104     -1.052104
  C      -3.540528     -0.236323     -1.048275
  C      -4.524116      0.743846     -1.059252
  C      -4.166283      2.092161     -1.055215
  H      -2.535092      3.497596     -1.056437
  H      -0.790709      1.755543     -1.090305
  H      -3.829810     -1.283405     -1.050025
  H      -4.933042      2.854863     -1.057548
  C      -1.094711     -0.924806     -1.004985
  C      -1.140436     -1.810541      0.230581
  H      -0.400119     -2.608304      0.166365
  H      -2.129222     -2.242458      0.363657
  H      -0.892156     -1.180316      1.084406
  N      -1.199783     -1.774484     -2.273889
  O      -0.573832     -1.401335     -3.249071
  O      -1.907463     -2.759297     -2.261561
  N       1.920554      0.256241      0.546187
  C       2.387469     -1.128201      0.565135
  C       2.371354     -1.638274      1.998654
  N       3.220212     -0.777514      2.827251
  C       2.759668      0.612781      2.798911
  C       2.767063      1.119506      1.363237
  H       2.379389      2.139237      1.328036
  H       3.809234      1.140881      1.003050
  H       3.427470      1.219642      3.414006
  H       1.738261      0.715243      3.199095
  H       2.752659     -2.659736      2.040297
  H       1.324397     -1.648840      2.342486
  H       3.407525     -1.230409      0.160307
  H      -0.135714     -0.428103     -1.118098
  H       1.857428      0.590997     -0.409681
  H       1.715093     -1.728287     -0.049938
  H       3.225363     -1.116750      3.781763
  H       1.933580      1.333640     -3.006845
  H       1.772669      2.441248     -1.971605
  O       1.440417      1.565613     -2.208823
  H      -5.572417      0.454049     -1.069801
39
Coordinates from ORCA-job /home/rudenko/2025/kie/for_orca/c6h5chno2ch3_piperazine/orca/ts_opt/ts_opt E -859.675022402081
  C      -2.816692      2.450047     -1.128813
  C      -1.833531      1.465140     -1.123272
  C      -2.187921      0.119105     -1.048506
  C      -3.534972     -0.231733     -0.990852
  C      -4.514791      0.754137     -1.006390
  C      -4.158282      2.097443     -1.071867
  H      -2.531062      3.494007     -1.176798
  H      -0.787344      1.741873     -1.175905
  H      -3.822039     -1.270993     -0.936091
  H      -4.923547      2.864832     -1.077494
  C      -1.091378     -0.923446     -1.004296
  C      -1.117699     -1.801490      0.237594
  H      -0.380391     -2.601148      0.163997
  H      -2.105399     -2.230411      0.390158
  H      -0.848943     -1.168539      1.082992
  N      -1.207030     -1.784491     -2.264312
  O      -0.551431     -1.451483     -3.231240
  O      -1.945197     -2.749871     -2.247609
  N       1.907853      0.267034      0.549409
  C       2.394348     -1.112026      0.543651
  C       2.377244     -1.650955      1.966770
  N       3.207682     -0.795289      2.817908
  C       2.725522      0.589198      2.814139
  C       2.734872      1.126691      1.388709
  H       2.330225      2.141531      1.372679
  H       3.779200      1.172248      1.035828
  H       3.378879      1.193389      3.446505
  H       1.699220      0.667638      3.208968
  H       2.772254     -2.669101      1.991608
  H       1.327184     -1.680216      2.302577
  H       3.417062     -1.193175      0.140370
  H      -0.137558     -0.422667     -1.131021
  H       1.842575      0.614643     -0.402254
  H       1.731521     -1.708664     -0.085416
  H       3.213272     -1.154427      3.766099
  H       1.989260      1.343448     -2.984274
  H       1.762287      2.453963     -1.963959
  O       1.460337      1.569109     -2.208454
  H      -5.555586      0.474648     -0.961138
39
Coordinates from ORCA-job /home/rudenko/2025/kie/for_orca/c6h5chno2ch3_piperazine/orca/ts_opt/ts_opt E -859.674950235011
  C      -2.810266      2.451573     -1.070084
  C      -1.823637      1.470581     -1.072697
  C      -2.175146      0.122290     -1.041182
  C      -3.523795     -0.235178     -1.023957
  C      -4.507996      0.745200     -1.037304
  C      -4.153618      2.091678     -1.054931
  H      -2.527205      3.496304     -1.086378
  H      -0.779329      1.753728     -1.102754
  H      -3.810093     -1.279456     -1.008865
  H      -4.921577      2.854484     -1.060284
  C      -1.079198     -0.921903     -0.998862
  C      -1.117098     -1.804446      0.238840
  H      -0.378753     -2.602874      0.170104
  H      -2.106245     -2.234044      0.377421
  H      -0.857122     -1.175155      1.089305
  N      -1.189886     -1.774153     -2.264255
  O      -0.562889     -1.409001     -3.240330
  O      -1.899742     -2.759019     -2.246596
  N       1.905376      0.260139      0.534712
  C       2.376511     -1.122953      0.547951
  C       2.356312     -1.639932      1.978424
  N       3.197751     -0.782384      2.816573
  C       2.732144      0.606828      2.793425
  C       2.745139      1.121353      1.360170
  H       2.353757      2.140346      1.328823
  H       3.789090      1.148265      1.005226
  H       3.394174      1.212676      3.415297
  H       1.708023      0.703414      3.188625
  H       2.737854     -2.661988      2.017617
  H       1.306507     -1.650785      2.313224
  H       3.396470     -1.220303      0.141987
  H      -0.122945     -0.422136     -1.116503
  H       1.845133      0.595893     -0.420987
  H       1.704989     -1.724856     -0.066145
  H       3.199088     -1.127642      3.769335
  H       1.941485      1.324361     -2.988721
  H       1.768936      2.434544     -1.958683
  O       1.440192      1.557231     -2.196475
  H      -5.552390      0.457318     -1.031065
39
Coordinates from ORCA-job /home/rudenko/2025/kie/for_orca/c6h5chno2ch3_piperazine/orca/ts_opt/ts_opt E -859.675031555898
  C      -2.815119      2.451940     -1.139251
  C      -1.832508      1.467556     -1.124300
  C      -2.188139      0.122193     -1.037445
  C      -3.537679     -0.229614     -0.979204
  C      -4.518664      0.753340     -1.010143
  C      -4.159799      2.096955     -1.086029
  H      -2.529394      3.493017     -1.202687
  H      -0.787127      1.742352     -1.182521
  H      -3.827968     -1.273015     -0.924867
  H      -4.925786      2.860456     -1.108392
  C      -1.090872     -0.920485     -0.994078
  C      -1.109747     -1.796989      0.248955
  H      -0.374245     -2.597518      0.170670
  H      -2.096522     -2.224374      0.408878
  H      -0.832929     -1.164255      1.091385
  N      -1.211208     -1.783299     -2.251829
  O      -0.556937     -1.450356     -3.223572
  O      -1.958914     -2.740204     -2.233575
  N       1.905385      0.268886      0.550121
  C       2.394529     -1.108084      0.536470
  C       2.380981     -1.654183      1.955768
  N       3.211214     -0.801171      2.810016
  C       2.724718      0.580723      2.815784
  C       2.730696      1.125937      1.393778
  H       2.322925      2.138695      1.384251
  H       3.774337      1.177411      1.040805
  H       3.376962      1.183220      3.451211
  H       1.699004      0.652860      3.211754
  H       2.777975     -2.670666      1.973988
  H       1.332197     -1.687474      2.292150
  H       3.416472     -1.184181      0.130895
  H      -0.137161     -0.419213     -1.125327
  H       1.838695      0.619507     -0.399617
  H       1.731822     -1.703275     -0.093528
  H       3.219992     -1.165439      3.755374
  H       1.997858      1.344939     -2.972843
  H       1.758712      2.455714     -1.955428
  O       1.462156      1.569383     -2.200995
  H      -5.565912      0.468710     -0.976622
39
Coordinates from ORCA-job /home/rudenko/2025/kie/for_orca/c6h5chno2ch3_piperazine/orca/ts_opt/ts_opt E -859.674768541093
  C      -2.812909      2.449641     -1.206526
  C      -1.832561      1.463499     -1.172284
  C      -2.188781      0.122956     -1.028060
  C      -3.537216     -0.224040     -0.931136
  C      -4.516608      0.760059     -0.980370
  C      -4.156700      2.099811     -1.114113
  H      -2.525568      3.489960     -1.310241
  H      -0.785857      1.728807     -1.255012
  H      -3.827307     -1.262179     -0.830579
  H      -4.921600      2.865189     -1.148677
  C      -1.089685     -0.917399     -0.984432
  C      -1.087659     -1.785380      0.265423
  H      -0.356644     -2.589032      0.176894
  H      -2.072257     -2.208502      0.448104
  H      -0.787755     -1.149486      1.097409
  N      -1.222319     -1.791567     -2.232167
  O      -0.538448     -1.503849     -3.194000
  O      -2.006637     -2.716980     -2.213617
  N       1.894522      0.278606      0.554821
  C       2.401423     -1.091815      0.514786
  C       2.391028     -1.666509      1.922310
  N       3.207971     -0.820421      2.795834
  C       2.700953      0.553764      2.829437
  C       2.703349      1.129918      1.419389
  H       2.279316      2.136083      1.430928
  H       3.747366      1.206044      1.071901
  H       3.341670      1.151998      3.480358
  H       1.672699      0.601508      3.222794
  H       2.800304     -2.678467      1.921448
  H       1.340885     -1.717914      2.253645
  H       3.424617     -1.147198      0.108790
  H      -0.139941     -0.413861     -1.129718
  H       1.823962      0.643026     -0.389839
  H       1.745916     -1.682405     -0.127739
  H       3.221054     -1.204412      3.733412
  H       2.048066      1.360813     -2.946582
  H       1.744238      2.471230     -1.945515
  O       1.478657      1.576688     -2.196686
  H      -5.561543      0.481815     -0.910391
39
Coordinates from ORCA-job /home/rudenko/2025/kie/for_orca/c6h5chno2ch3_piperazine/orca/ts_opt/ts_opt E -859.674873928424
  C      -2.811181      2.452093     -1.135882
  C      -1.827834      1.468022     -1.121423
  C      -2.182074      0.122367     -1.034952
  C      -3.531423     -0.231406     -0.980586
  C      -4.513372      0.750777     -1.012133
  C      -4.155318      2.096031     -1.083714
  H      -2.524812      3.497378     -1.191175
  H      -0.782085      1.743025     -1.177821
  H      -3.819768     -1.273100     -0.923489
  H      -4.921545      2.861013     -1.101484
  C      -1.084243     -0.919725     -0.991703
  C      -1.102033     -1.794911      0.252232
  H      -0.367166     -2.595807      0.173696
  H      -2.089012     -2.221595      0.412547
  H      -0.822571     -1.162771      1.094214
  N      -1.206084     -1.783054     -2.248205
  O      -0.551752     -1.455209     -3.218277
  O      -1.952896     -2.739421     -2.229015
  N       1.899701      0.269460      0.544218
  C       2.388158     -1.107720      0.531612
  C       2.373161     -1.652859      1.950918
  N       3.203189     -0.800650      2.805879
  C       2.716831      0.581259      2.811091
  C       2.724153      1.126281      1.389036
  H       2.316331      2.138996      1.379063
  H       3.768160      1.177784      1.037415
  H       3.368434      1.183645      3.447179
  H       1.690705      0.653356      3.205972
  H       2.768317     -2.670179      1.970269
  H       1.323276     -1.683365      2.284789
  H       3.409725     -1.184665      0.125129
  H      -0.131070     -0.417940     -1.122780
  H       1.835066      0.618859     -0.406509
  H       1.724215     -1.704396     -0.096142
  H       3.211063     -1.165087      3.751243
  H       1.994923      1.339675     -2.968676
  H       1.758811      2.451261     -1.951769
  O       1.460069      1.565420     -2.196628
  H      -5.558048      0.467157     -0.974141
39
Coordinates from ORCA-job /home/rudenko/2025/kie/for_orca/c6h5chno2ch3_piperazine/orca/ts_opt/ts_opt E -859.674301291982
  C      -2.796488      2.453788     -1.099631
  C      -1.809855      1.473074     -1.085583
  C      -2.161594      0.125327     -1.020426
  C      -3.510501     -0.232823     -0.986832
  C      -4.495228      0.746513     -1.017901
  C      -4.140426      2.092893     -1.069162
  H      -2.514467      3.496302     -1.148173
  H      -0.764748      1.751559     -1.130110
  H      -3.797956     -1.278991     -0.953973
  H      -4.909394      2.853257     -1.093962
  C      -1.062672     -0.916615     -0.981727
  C      -1.082499     -1.793226      0.261534
  H      -0.348149     -2.594138      0.182535
  H      -2.070926     -2.218384      0.415838
  H      -0.799199     -1.163891      1.104155
  N      -1.185505     -1.775271     -2.240010
  O      -0.547319     -1.435669     -3.214371
  O      -1.915653     -2.741675     -2.218616
  N       1.885588      0.267953      0.524706
  C       2.366034     -1.111866      0.521130
  C       2.346142     -1.646289      1.944013
  N       3.179182     -0.795325      2.796684
  C       2.701541      0.589713      2.791477
  C       2.714618      1.124429      1.365445
  H       2.313937      2.139979      1.347816
  H       3.759687      1.166422      1.015369
  H       3.355912      1.192686      3.424410
  H       1.675116      0.670911      3.183982
  H       2.730958     -2.667251      1.972015
  H       1.293279     -1.662612      2.269985
  H       3.385132     -1.197672      0.110630
  H      -0.110568     -0.412416     -1.109783
  H       1.825913      0.608966     -0.429452
  H       1.694805     -1.713536     -0.094561
  H       3.181758     -1.154093      3.744258
  H       1.959073      1.318918     -2.959935
  H       1.756620      2.431831     -1.938622
  O       1.439738      1.550796     -2.178563
  H      -5.541885      0.456427     -1.004592
39
Coordinates from ORCA-job /home/rudenko/2025/kie/for_orca/c6h5chno2ch3_piperazine/orca/ts_opt/ts_opt E -859.674859878909
  C      -2.809906      2.452036     -1.151232
  C      -1.826183      1.468885     -1.129292
  C      -2.180028      0.124003     -1.029023
  C      -3.528322     -0.228181     -0.961583
  C      -4.509884      0.754582     -0.995754
  C      -4.153227      2.096934     -1.087826
  H      -2.527025      3.489755     -1.231919
  H      -0.780668      1.741787     -1.192434
  H      -3.817757     -1.272277     -0.899576
  H      -4.920530      2.858540     -1.117539
  C      -1.082046     -0.917938     -0.987735
  C      -1.094461     -1.792393      0.256516
  H      -0.360784     -2.593976      0.174486
  H      -2.080979     -2.218296      0.422470
  H      -0.809360     -1.160600      1.096661
  N      -1.206366     -1.782286     -2.243395
  O      -0.548777     -1.456705     -3.214594
  O      -1.960513     -2.734316     -2.223894
  N       1.895721      0.270500      0.543215
  C       2.387989     -1.105050      0.525139
  C       2.373294     -1.656586      1.942153
  N       3.199337     -0.805636      2.802234
  C       2.708703      0.575129      2.812625
  C       2.716683      1.125998      1.392636
  H       2.306020      2.137895      1.386179
  H       3.761221      1.181855      1.042603
  H       3.357480      1.176990      3.452239
  H       1.681610      0.642608      3.206330
  H       2.771157     -2.672983      1.957592
  H       1.323268     -1.691125      2.274418
  H       3.409901     -1.177043      0.118642
  H      -0.129725     -0.415437     -1.122266
  H       1.830632      0.623966     -0.405711
  H       1.726180     -1.701270     -0.105019
  H       3.206753     -1.174232      3.746194
  H       2.007309      1.343519     -2.959484
  H       1.755856      2.454817     -1.945522
  O       1.464034      1.567221     -2.192524
  H      -5.556608      0.469308     -0.956012
39
Coordinates from ORCA-job /home/rudenko/2025/kie/for_orca/c6h5chno2ch3_piperazine/orca/ts_opt/ts_opt E -859.675272648659
  C      -2.825242      2.450390     -1.183341
  C      -1.844577      1.463964     -1.162304
  C      -2.200104      0.121336     -1.043990
  C      -3.548674     -0.227032     -0.958347
  C      -4.528223      0.757403     -0.993880
  C      -4.168841      2.098948     -1.102296
  H      -2.537531      3.493162     -1.265010
  H      -0.798438      1.733279     -1.235184
  H      -3.837823     -1.265861     -0.873125
  H      -4.933537      2.865269     -1.123727
  C      -1.103887     -0.921090     -0.997075
  C      -1.115590     -1.794626      0.246439
  H      -0.381410     -2.595821      0.165356
  H      -2.100227     -2.223104      0.418199
  H      -0.837053     -1.161480      1.087930
  N      -1.226414     -1.788899     -2.251915
  O      -0.554286     -1.472979     -3.218563
  O      -1.996798     -2.730791     -2.236021
  N       1.909259      0.269677      0.560877
  C       2.408351     -1.102905      0.536950
  C       2.399633     -1.662474      1.951140
  N       3.224048     -0.808753      2.810958
  C       2.725099      0.568674      2.829660
  C       2.726662      1.126482      1.412732
  H       2.309705      2.135500      1.411453
  H       3.769869      1.190195      1.060816
  H       3.371759      1.170791      3.470885
  H       1.698859      0.628116      3.226221
  H       2.807843     -2.674796      1.959288
  H       1.353649     -1.711205      2.293372
  H       3.432753     -1.166800      0.134881
  H      -0.149300     -0.422539     -1.132511
  H       1.840580      0.632074     -0.384306
  H       1.754409     -1.695337     -0.104105
  H       3.237127     -1.181161      3.753210
  H       2.044050      1.366367     -2.967155
  H       1.760355      2.474572     -1.956792
  O       1.486628      1.583253     -2.209060
  H      -5.572683      0.478202     -0.931661
39
Coordinates from ORCA-job /home/rudenko/2025/kie/for_orca/c6h5chno2ch3_piperazine/orca/ts_opt/ts_opt E -859.675433009297
  C      -2.841306      2.449159     -1.204984
  C      -1.861967      1.461826     -1.183843
  C      -2.218662      0.120619     -1.055739
  C      -3.566505     -0.224518     -0.954612
  C      -4.543298      0.763357     -0.982746
  C      -4.183367      2.102138     -1.105744
  H      -2.556156      3.483066     -1.307923
  H      -0.815901      1.728027     -1.264712
  H      -3.857796     -1.265579     -0.865587
  H      -4.947484      2.867629     -1.128981
  C      -1.125525     -0.923471     -1.007250
  C      -1.139606     -1.799469      0.232699
  H      -0.403642     -2.599071      0.152920
  H      -2.122552     -2.232066      0.406494
  H      -0.871504     -1.166939      1.077968
  N      -1.245784     -1.790071     -2.264813
  O      -0.560277     -1.480727     -3.225643
  O      -2.029783     -2.722381     -2.256153
  N       1.924918      0.266635      0.577151
  C       2.428333     -1.103889      0.551415
  C       2.424039     -1.667229      1.964644
  N       3.246554     -0.809650      2.823319
  C       2.743522      0.566952      2.844069
  C       2.741786      1.125743      1.427673
  H       2.322284      2.134111      1.426626
  H       3.784309      1.191376      1.073300
  H       3.389567      1.170213      3.484775
  H       1.717604      0.624006      3.242695
  H       2.841222     -2.676238      1.969017
  H       1.382021     -1.727611      2.316479
  H       3.455232     -1.162319      0.154147
  H      -0.168530     -0.429525     -1.141378
  H       1.853195      0.636572     -0.364448
  H       1.782247     -1.694233     -0.098466
  H       3.262056     -1.182588      3.765675
  H       2.074065      1.388060     -2.976530
  H       1.767968      2.493166     -1.966026
  O       1.507336      1.599306     -2.223539
  H      -5.588613      0.485618     -0.911950
39
Coordinates from ORCA-job /home/rudenko/2025/kie/for_orca/c6h5chno2ch3_piperazine/orca/ts_opt/ts_opt E -859.675447816661
  C      -2.855060      2.449797     -1.198907
  C      -1.878442      1.458699     -1.190537
  C      -2.237281      0.117175     -1.074104
  C      -3.586304     -0.225981     -0.975872
  C      -4.562847      0.761021     -1.002006
  C      -4.199642      2.101584     -1.109548
  H      -2.561640      3.497043     -1.268565
  H      -0.831894      1.725320     -1.267715
  H      -3.875911     -1.260302     -0.881344
  H      -4.961061      2.872420     -1.115465
  C      -1.147202     -0.929986     -1.021251
  C      -1.169557     -1.809232      0.214839
  H      -0.428961     -2.605451      0.141155
  H      -2.150820     -2.248168      0.382725
  H      -0.919524     -1.178198      1.067042
  N      -1.262317     -1.793910     -2.282377
  O      -0.579471     -1.473106     -3.244128
  O      -2.043573     -2.731336     -2.276283
  N       1.941458      0.261910      0.589979
  C       2.444004     -1.108414      0.571798
  C       2.444581     -1.664226      1.987559
  N       3.271115     -0.800981      2.837475
  C       2.768684      0.575040      2.852443
  C       2.761950      1.125384      1.433512
  H       2.343477      2.133317      1.427076
  H       3.802765      1.187352      1.075312
  H       3.417467      1.180853      3.487722
  H       1.744857      0.634746      3.254270
  H       2.865989     -2.671186      1.994523
  H       1.406945     -1.728384      2.350278
  H       3.472363     -1.168437      0.178142
  H      -0.185643     -0.441622     -1.147936
  H       1.870201      0.632422     -0.351604
  H       1.802453     -1.700489     -0.080606
  H       3.289683     -1.168002      3.781608
  H       2.087941      1.397504     -2.993601
  H       1.783428      2.501124     -1.980294
  O       1.523984      1.607734     -2.239147
  H      -5.606196      0.486964     -0.926167
39
Coordinates from ORCA-job /home/rudenko/2025/kie/for_orca/c6h5chno2ch3_piperazine/orca/ts_opt/ts_opt E -859.675388505160
  C      -2.868178      2.449891     -1.175998
  C      -1.891019      1.459903     -1.177465
  C      -2.251070      0.117049     -1.085354
  C      -3.601021     -0.228113     -1.002276
  C      -4.575079      0.762893     -1.007673
  C      -4.210660      2.104658     -1.089161
  H      -2.580052      3.485083     -1.246951
  H      -0.844828      1.727957     -1.248154
  H      -3.894929     -1.271629     -0.939869
  H      -4.972205      2.873556     -1.090333
  C      -1.165831     -0.933865     -1.035415
  C      -1.201241     -1.820898      0.193365
  H      -0.454795     -2.612172      0.126439
  H      -2.181623     -2.267563      0.348086
  H      -0.973164     -1.193647      1.054522
  N      -1.276295     -1.787922     -2.304510
  O      -0.594337     -1.459285     -3.261452
  O      -2.051386     -2.728550     -2.307112
  N       1.960027      0.255795      0.599770
  C       2.457555     -1.116334      0.594705
  C       2.459122     -1.658769      2.015903
  N       3.290388     -0.789717      2.855752
  C       2.795739      0.590036      2.856137
  C       2.788777      1.124166      1.431222
  H       2.376863      2.135189      1.413222
  H       3.829009      1.174027      1.068385
  H       3.449800      1.199207      3.482865
  H       1.772901      0.661293      3.260088
  H       2.880060     -2.666321      2.030933
  H       1.424297     -1.719492      2.387262
  H       3.487037     -1.183090      0.204168
  H      -0.200697     -0.451224     -1.152258
  H       1.889825      0.622886     -0.342852
  H       1.818662     -1.712097     -0.056152
  H       3.307353     -1.146438      3.804276
  H       2.086440      1.400291     -3.013782
  H       1.801797      2.504127     -1.992073
  O       1.533416      1.612935     -2.251186
  H      -5.620656      0.486186     -0.947072
39
Coordinates from ORCA-job /home/rudenko/2025/kie/for_orca/c6h5chno2ch3_piperazine/orca/ts_opt/ts_opt E -859.675496044494
  C      -2.853804      2.449740     -1.186824
  C      -1.875282      1.461205     -1.178518
  C      -2.233145      0.118681     -1.071189
  C      -3.582008     -0.227076     -0.980891
  C      -4.557470      0.762729     -0.995452
  C      -4.195499      2.103767     -1.093918
  H      -2.567468      3.484544     -1.270714
  H      -0.829285      1.729008     -1.253047
  H      -3.874410     -1.269903     -0.906998
  H      -4.958206      2.871616     -1.103451
  C      -1.144039     -0.929023     -1.021664
  C      -1.169813     -1.810786      0.212653
  H      -0.428480     -2.606539      0.140085
  H      -2.151656     -2.250481      0.376221
  H      -0.922669     -1.181160      1.066782
  N      -1.258533     -1.788997     -2.285433
  O      -0.578758     -1.464779     -3.246436
  O      -2.034456     -2.729569     -2.281075
  N       1.941116      0.260150      0.586406
  C       2.440617     -1.111693      0.573267
  C       2.438998     -1.662244      1.991595
  N       3.266285     -0.798105      2.839714
  C       2.768133      0.580345      2.848109
  C       2.764303      1.124525      1.426563
  H       2.349313      2.134517      1.415273
  H       3.805790      1.180967      1.068063
  H       3.418424      1.187202      3.481019
  H       1.743745      0.645638      3.249185
  H       2.857412     -2.670828      2.002978
  H       1.400582     -1.721610      2.353399
  H       3.468776     -1.175709      0.179421
  H      -0.182664     -0.440997     -1.146112
  H       1.871344      0.628313     -0.356087
  H       1.797795     -1.705765     -0.076170
  H       3.282027     -1.161550      3.785750
  H       2.078760      1.393848     -2.996228
  H       1.786280      2.498265     -1.979237
  O       1.520287      1.606051     -2.237554
  H      -5.602340      0.485702     -0.929485
39
Coordinates from ORCA-job /home/rudenko/2025/kie/for_orca/c6h5chno2ch3_piperazine/orca/ts_opt/ts_opt E -859.675543452882
  C      -2.850165      2.450407     -1.189352
  C      -1.872255      1.460878     -1.179862
  C      -2.230787      0.118715     -1.067684
  C      -3.579868     -0.225973     -0.974810
  C      -4.556820      0.760827     -0.999703
  C      -4.194493      2.101298     -1.103798
  H      -2.559724      3.493355     -1.264209
  H      -0.825854      1.728104     -1.255382
  H      -3.870216     -1.263354     -0.889084
  H      -4.957156      2.869618     -1.114803
  C      -1.141150     -0.929077     -1.018193
  C      -1.163868     -1.809570      0.217684
  H      -0.422682     -2.605373      0.143673
  H      -2.145383     -2.248943      0.382962
  H      -0.912513     -1.179637      1.070526
  N      -1.258555     -1.790268     -2.280258
  O      -0.578335     -1.470172     -3.241604
  O      -2.037115     -2.727686     -2.274632
  N       1.936877      0.261965      0.583920
  C       2.438718     -1.109011      0.567680
  C       2.437523     -1.662487      1.984460
  N       3.263596     -0.799613      2.834962
  C       2.762758      0.577344      2.847070
  C       2.758006      1.125346      1.427097
  H       2.341110      2.134190      1.418691
  H       3.799404      1.185062      1.069504
  H       3.411674      1.183699      3.481868
  H       1.738340      0.639020      3.247858
  H       2.856356     -2.670588      1.993706
  H       1.398392     -1.722829      2.344330
  H       3.466504     -1.170614      0.172800
  H      -0.179930     -0.440447     -1.144077
  H       1.867687      0.630367     -0.358733
  H       1.795989     -1.704104     -0.081249
  H       3.279997     -1.165571      3.779679
  H       2.081238      1.391232     -2.989900
  H       1.784345      2.496229     -1.975780
  O       1.519949      1.603565     -2.233453
  H      -5.601596      0.484095     -0.931903
39
Coordinates from ORCA-job /home/rudenko/2025/kie/for_orca/c6h5chno2ch3_piperazine/orca/ts_opt/ts_opt E -859.675475870831
  C      -2.849583      2.450385     -1.125669
  C      -1.869397      1.462859     -1.134301
  C      -2.226225      0.117332     -1.076132
  C      -3.575051     -0.230265     -1.016678
  C      -4.553513      0.755488     -1.022545
  C      -4.193888      2.097362     -1.075328
  H      -2.560203      3.495636     -1.159083
  H      -0.823590      1.737617     -1.184647
  H      -3.863414     -1.268025     -0.967510
  H      -4.957683      2.864714     -1.070611
  C      -1.136665     -0.931419     -1.027435
  C      -1.176993     -1.820463      0.201910
  H      -0.431561     -2.613470      0.137259
  H      -2.160225     -2.263966      0.345733
  H      -0.946834     -1.194757      1.063889
  N      -1.239661     -1.781275     -2.299306
  O      -0.597349     -1.404802     -3.274321
  O      -1.975232     -2.758694     -2.290983
  N       1.942347      0.252427      0.575086
  C       2.426363     -1.125316      0.585974
  C       2.420334     -1.649445      2.014560
  N       3.258824     -0.780829      2.846805
  C       2.777706      0.603308      2.829938
  C       2.778241      1.120983      1.398676
  H       2.376906      2.135921      1.369171
  H       3.819556      1.156613      1.037490
  H       3.436434      1.213815      3.450425
  H       1.755094      0.688654      3.231129
  H       2.825378     -2.662928      2.044048
  H       1.381277     -1.687954      2.377014
  H       3.452676     -1.208583      0.191274
  H      -0.172910     -0.443672     -1.140268
  H       1.878442      0.606964     -0.373386
  H       1.775421     -1.725152     -0.050045
  H       3.269688     -1.126939      3.799261
  H       2.031880      1.371836     -3.011992
  H       1.797890      2.477196     -1.983045
  O       1.502955      1.592693     -2.235411
  H      -5.597434      0.476150     -0.980948
39
Coordinates from ORCA-job /home/rudenko/2025/kie/for_orca/c6h5chno2ch3_piperazine/orca/ts_opt/ts_opt E -859.675520234711
  C      -2.840007      2.450222     -1.054888
  C      -1.857195      1.465654     -1.078276
  C      -2.212705      0.118275     -1.073754
  C      -3.563315     -0.236705     -1.066866
  C      -4.543605      0.747925     -1.058096
  C      -4.183620      2.095210     -1.042200
  H      -2.553201      3.493884     -1.045916
  H      -0.811547      1.745062     -1.101966
  H      -3.852967     -1.282449     -1.072269
  H      -4.948558      2.861787     -1.024664
  C      -1.124630     -0.931472     -1.027090
  C      -1.180092     -1.826121      0.197935
  H      -0.432199     -2.616803      0.140833
  H      -2.164678     -2.272179      0.321589
  H      -0.963198     -1.203909      1.066113
  N      -1.223689     -1.771487     -2.304401
  O      -0.601882     -1.383964     -3.277255
  O      -1.928735     -2.763429     -2.298488
  N       1.940504      0.246909      0.560675
  C       2.407805     -1.136334      0.594485
  C       2.396922     -1.634018      2.031965
  N       3.248931     -0.763392      2.847902
  C       2.786857      0.626343      2.807579
  C       2.790201      1.118317      1.367663
  H       2.402616      2.137641      1.321322
  H       3.830755      1.133593      1.003433
  H       3.455594      1.238892      3.415268
  H       1.766611      0.732582      3.209630
  H       2.785804     -2.652891      2.079452
  H       1.356154     -1.648952      2.393244
  H       3.431169     -1.239784      0.197368
  H      -0.159891     -0.444150     -1.128172
  H       1.882063      0.585369     -0.394249
  H       1.746152     -1.741772     -0.025642
  H       3.256353     -1.092959      3.805974
  H       1.970782      1.348712     -3.023744
  H       1.802928      2.453962     -1.982501
  O       1.475977      1.578379     -2.226845
  H      -5.588468      0.464054     -1.055148
39
Coordinates from ORCA-job /home/rudenko/2025/kie/for_orca/c6h5chno2ch3_piperazine/orca/ts_opt/ts_opt E -859.675523814647
  C      -2.846527      2.449004     -1.035122
  C      -1.863724      1.464440     -1.064541
  C      -2.219952      0.117598     -1.079704
  C      -3.570015     -0.234829     -1.080659
  C      -4.550740      0.747904     -1.069079
  C      -4.192005      2.091683     -1.041648
  H      -2.558428      3.494910     -1.010754
  H      -0.818053      1.743862     -1.078686
  H      -3.857811     -1.275131     -1.092769
  H      -4.957631      2.856063     -1.022634
  C      -1.132958     -0.933779     -1.034502
  C      -1.194929     -1.834018      0.185466
  H      -0.443357     -2.621562      0.132040
  H      -2.178691     -2.284695      0.299933
  H      -0.991426     -1.214816      1.058956
  N      -1.226158     -1.767231     -2.317594
  O      -0.618297     -1.355783     -3.294735
  O      -1.916552     -2.772656     -2.313683
  N       1.950208      0.242366      0.564674
  C       2.411954     -1.142309      0.608215
  C       2.401205     -1.629405      2.049377
  N       3.258068     -0.755942      2.857472
  C       2.803396      0.636255      2.806357
  C       2.806661      1.116157      1.362310
  H       2.424619      2.137372      1.307773
  H       3.846466      1.122114      0.995208
  H       3.476707      1.250236      3.407696
  H       1.784442      0.751859      3.209556
  H       2.787353     -2.649077      2.103541
  H       1.362328     -1.638862      2.414978
  H       3.435393     -1.252242      0.212763
  H      -0.166321     -0.447949     -1.129834
  H       1.892043      0.576727     -0.391426
  H       1.749808     -1.748915     -0.009662
  H       3.264409     -1.077573      3.818354
  H       1.958675      1.346147     -3.033539
  H       1.810829      2.450477     -1.987028
  O       1.475186      1.577636     -2.230166
  H      -5.596179      0.463961     -1.076906
39
Coordinates from ORCA-job /home/rudenko/2025/kie/for_orca/c6h5chno2ch3_piperazine/orca/ts_opt/ts_opt E -859.675575090368
  C      -2.844746      2.451184     -1.099450
  C      -1.862743      1.465680     -1.111563
  C      -2.219003      0.119152     -1.071288
  C      -3.568776     -0.232294     -1.030718
  C      -4.549006      0.751068     -1.035611
  C      -4.189963      2.094662     -1.067179
  H      -2.556976      3.495885     -1.120002
  H      -0.817168      1.742710     -1.153472
  H      -3.856905     -1.272551     -0.999154
  H      -4.955146      2.859420     -1.063307
  C      -1.130016     -0.929867     -1.024393
  C      -1.174963     -1.820835      0.203513
  H      -0.429317     -2.613357      0.140478
  H      -2.158830     -2.264616      0.340915
  H      -0.947217     -1.196578      1.067168
  N      -1.234042     -1.775830     -2.298035
  O      -0.595408     -1.402904     -3.270119
  O      -1.962553     -2.753235     -2.291714
  N       1.939971      0.250620      0.568230
  C       2.418249     -1.128928      0.586010
  C       2.410211     -1.644788      2.017204
  N       3.253032     -0.776171      2.844905
  C       2.778844      0.610316      2.820647
  C       2.780823      1.119726      1.386547
  H       2.384584      2.136519      1.351583
  H       3.822120      1.148115      1.024323
  H       3.441152      1.221327      3.437057
  H       1.756759      0.703020      3.222105
  H       2.809229     -2.660347      2.052276
  H       1.370193     -1.674838      2.378434
  H       3.443337     -1.218854      0.189788
  H      -0.166076     -0.442280     -1.133666
  H       1.878218      0.599783     -0.382226
  H       1.763218     -1.731019     -0.043824
  H       3.262282     -1.117269      3.799101
  H       2.009925      1.363150     -3.013626
  H       1.799090      2.469111     -1.979640
  O       1.492312      1.587494     -2.229568
  H      -5.594695      0.467617     -1.011730
39
Coordinates from ORCA-job /home/rudenko/2025/kie/for_orca/c6h5chno2ch3_piperazine/orca/ts_opt/ts_opt E -859.675596470678
  C      -2.840241      2.450973     -1.140289
  C      -1.860821      1.462709     -1.142961
  C      -2.218422      0.117926     -1.067491
  C      -3.568169     -0.230427     -1.003223
  C      -4.545549      0.757194     -1.013926
  C      -4.183517      2.101132     -1.076283
  H      -2.551069      3.493875     -1.186754
  H      -0.814771      1.735017     -1.201866
  H      -3.859265     -1.272215     -0.949734
  H      -4.946449      2.870090     -1.075642
  C      -1.128903     -0.930673     -1.019364
  C      -1.162537     -1.815758      0.213428
  H      -0.419018     -2.609954      0.145105
  H      -2.145367     -2.257381      0.364036
  H      -0.921538     -1.188570      1.071427
  N      -1.239808     -1.784760     -2.286597
  O      -0.586787     -1.432118     -3.257125
  O      -1.988121     -2.748113     -2.276942
  N       1.931249      0.256528      0.569794
  C       2.422197     -1.118832      0.572240
  C       2.416572     -1.651840      1.997120
  N       3.250059     -0.785567      2.836523
  C       2.760909      0.595388      2.829238
  C       2.760385      1.123479      1.401849
  H       2.352991      2.135852      1.379534
  H       3.802000      1.168498      1.043316
  H       3.414936      1.205237      3.455325
  H       1.737244      0.671070      3.229143
  H       2.824418     -2.664161      2.020900
  H       1.375894     -1.695109      2.355157
  H       3.448324     -1.194866      0.176096
  H      -0.166568     -0.441985     -1.136423
  H       1.868199      0.614291     -0.377793
  H       1.772844     -1.719947     -0.064864
  H       3.262177     -1.138717      3.786166
  H       2.042737      1.372793     -2.998553
  H       1.790309      2.478701     -1.975482
  O       1.503443      1.591853     -2.228535
  H      -5.589966      0.478391     -0.966551
39
Coordinates from ORCA-job /home/rudenko/2025/kie/for_orca/c6h5chno2ch3_piperazine/orca/ts_opt/ts_opt E -859.675539600114
  C      -2.834486      2.449455     -1.201343
  C      -1.856313      1.460855     -1.182887
  C      -2.214862      0.120279     -1.052408
  C      -3.562724     -0.221695     -0.944961
  C      -4.539640      0.764665     -0.978736
  C      -4.178845      2.101031     -1.107991
  H      -2.546480      3.486386     -1.296774
  H      -0.810018      1.725312     -1.267842
  H      -3.852462     -1.256776     -0.842173
  H      -4.942089      2.866796     -1.130989
  C      -1.124533     -0.927172     -1.006201
  C      -1.140189     -1.805901      0.231966
  H      -0.400760     -2.602910      0.152846
  H      -2.121418     -2.243556      0.403165
  H      -0.876584     -1.175949      1.080727
  N      -1.247487     -1.789060     -2.266471
  O      -0.567186     -1.473184     -3.229971
  O      -2.031446     -2.722202     -2.258600
  N       1.917482      0.263736      0.570040
  C       2.427210     -1.104924      0.547675
  C       2.424251     -1.665566      1.962050
  N       3.241919     -0.804406      2.821838
  C       2.732358      0.569977      2.839235
  C       2.730583      1.126099      1.422099
  H       2.308630      2.133529      1.418008
  H       3.773565      1.193283      1.068973
  H       3.374475      1.177487      3.480036
  H       1.705236      0.622852      3.235929
  H       2.844923     -2.673114      1.967935
  H       1.382042     -1.728364      2.313776
  H       3.454772     -1.159409      0.151310
  H      -0.164917     -0.437907     -1.136253
  H       1.851756      0.636113     -0.371542
  H       1.786563     -1.704291     -0.100125
  H       3.255904     -1.176145      3.764745
  H       2.091580      1.390269     -2.970019
  H       1.775510      2.495556     -1.962230
  O       1.518628      1.600421     -2.220926
  H      -5.584947      0.488428     -0.903910
39
Coordinates from ORCA-job /home/rudenko/2025/kie/for_orca/c6h5chno2ch3_piperazine/orca/ts_opt/ts_opt E -859.675598649766
  C      -2.833849      2.450255     -1.173785
  C      -1.855787      1.460940     -1.165224
  C      -2.214346      0.118474     -1.058278
  C      -3.563324     -0.226174     -0.970410
  C      -4.539596      0.762248     -0.992345
  C      -4.177072      2.103099     -1.090017
  H      -2.544318      3.491052     -1.245953
  H      -0.809538      1.728514     -1.239083
  H      -3.854737     -1.265448     -0.890995
  H      -4.939393      2.872105     -1.100104
  C      -1.124785     -0.929985     -1.011435
  C      -1.148217     -1.811584      0.224072
  H      -0.406280     -2.606649      0.149676
  H      -2.129872     -2.251998      0.385267
  H      -0.895046     -1.183357      1.077530
  N      -1.242926     -1.788379     -2.274658
  O      -0.577773     -1.452440     -3.243145
  O      -2.008731     -2.738096     -2.264260
  N       1.920381      0.260659      0.567402
  C       2.423098     -1.110391      0.556828
  C       2.419011     -1.658408      1.976071
  N       3.242996     -0.794258      2.826759
  C       2.740596      0.582131      2.833345
  C       2.739083      1.125692      1.411587
  H       2.322332      2.134627      1.399356
  H       3.781454      1.184584      1.056785
  H       3.386906      1.191548      3.467867
  H       1.714976      0.643446      3.231139
  H       2.834222     -2.667937      1.990304
  H       1.377479     -1.712708      2.329950
  H       3.450088     -1.173416      0.160683
  H      -0.163506     -0.440998     -1.135286
  H       1.857474      0.626104     -0.377181
  H       1.779366     -1.712295     -0.085357
  H       3.256409     -1.157853      3.772536
  H       2.071665      1.380128     -2.980744
  H       1.782826      2.486178     -1.967400
  O       1.512861      1.594657     -2.223261
  H      -5.584126      0.485934     -0.928237
39
Coordinates from ORCA-job /home/rudenko/2025/kie/for_orca/c6h5chno2ch3_piperazine/orca/ts_opt/ts_opt E -859.675591448999
  C      -2.833488      2.451449     -1.103333
  C      -1.851924      1.465793     -1.110340
  C      -2.209373      0.119875     -1.060134
  C      -3.558672     -0.229806     -1.011602
  C      -4.538321      0.753909     -1.021959
  C      -4.179086      2.095487     -1.067469
  H      -2.547169      3.491180     -1.138268
  H      -0.806066      1.740172     -1.157842
  H      -3.847030     -1.269064     -0.970480
  H      -4.944135      2.859341     -1.070823
  C      -1.121401     -0.930142     -1.017895
  C      -1.162880     -1.822450      0.208956
  H      -0.416077     -2.613427      0.142497
  H      -2.145841     -2.268398      0.346119
  H      -0.931463     -1.200484      1.073007
  N      -1.229842     -1.773269     -2.292538
  O      -0.593723     -1.399348     -3.265669
  O      -1.959477     -2.749307     -2.286568
  N       1.927697      0.251511      0.558627
  C       2.412172     -1.126174      0.574744
  C       2.403130     -1.645356      2.005073
  N       3.240317     -0.776022      2.837408
  C       2.759449      0.608789      2.815235
  C       2.762938      1.121493      1.382033
  H       2.362595      2.137268      1.348562
  H       3.805373      1.155136      1.022492
  H       3.417112      1.221948      3.434553
  H       1.735530      0.695771      3.214471
  H       2.803681     -2.660588      2.039349
  H       1.361412     -1.677337      2.361843
  H       3.437699     -1.210526      0.178213
  H      -0.157958     -0.442734     -1.128289
  H       1.870013      0.601507     -0.391834
  H       1.760056     -1.733547     -0.053418
  H       3.248430     -1.119994      3.790999
  H       2.018333      1.357792     -3.001064
  H       1.797992      2.465465     -1.970405
  O       1.494202      1.582598     -2.220803
  H      -5.584205      0.471490     -0.993447
39
Coordinates from ORCA-job /home/rudenko/2025/kie/for_orca/c6h5chno2ch3_piperazine/orca/ts_opt/ts_opt E -859.675604887969
  C      -2.828380      2.449756     -1.039029
  C      -1.847382      1.463332     -1.063976
  C      -2.205520      0.116826     -1.066992
  C      -3.555869     -0.233885     -1.062149
  C      -4.534377      0.752426     -1.052812
  C      -4.172938      2.096696     -1.034741
  H      -2.539555      3.493394     -1.023923
  H      -0.800937      1.739443     -1.084132
  H      -3.846537     -1.276731     -1.069538
  H      -4.936816      2.863818     -1.018148
  C      -1.119021     -0.935575     -1.025641
  C      -1.175895     -1.836211      0.194719
  H      -0.422885     -2.622122      0.137429
  H      -2.158461     -2.289225      0.309040
  H      -0.966506     -1.219116      1.068299
  N      -1.217922     -1.767669     -2.308327
  O      -0.617917     -1.353195     -3.288874
  O      -1.905420     -2.775277     -2.301257
  N       1.931075      0.244428      0.550242
  C       2.401110     -1.138046      0.592072
  C       2.389456     -1.628510      2.032286
  N       3.239539     -0.753851      2.845711
  C       2.774551      0.634854      2.798004
  C       2.778879      1.119842      1.355517
  H       2.390327      2.138732      1.303909
  H       3.819898      1.134525      0.992514
  H       3.441076      1.251964      3.403507
  H       1.753581      0.740797      3.198341
  H       2.777181     -2.647575      2.085785
  H       1.347909     -1.639878      2.391288
  H       3.424745     -1.241129      0.195677
  H      -0.153259     -0.449100     -1.122439
  H       1.879170      0.578539     -0.406993
  H       1.741625     -1.751803     -0.022654
  H       3.245519     -1.079264      3.805411
  H       1.966422      1.336260     -3.017582
  H       1.807825      2.442709     -1.976709
  O       1.475610      1.568763     -2.219228
  H      -5.579903      0.471058     -1.054607
39
Coordinates from ORCA-job /home/rudenko/2025/kie/for_orca/c6h5chno2ch3_piperazine/orca/ts_opt/ts_opt E -859.675621635043
  C      -2.829721      2.451178     -1.107292
  C      -1.850422      1.462705     -1.116595
  C      -2.208883      0.117200     -1.063307
  C      -3.559094     -0.231461     -1.016639
  C      -4.536086      0.757003     -1.020702
  C      -4.173239      2.101449     -1.059223
  H      -2.539516      3.495808     -1.133847
  H      -0.804016      1.735688     -1.164969
  H      -3.851142     -1.274583     -0.982394
  H      -4.935879      2.870919     -1.053273
  C      -1.120694     -0.933381     -1.018551
  C      -1.160725     -1.823913      0.210062
  H      -0.413221     -2.614526      0.144300
  H      -2.143039     -2.270612      0.348082
  H      -0.928962     -1.201054      1.073767
  N      -1.229593     -1.779596     -2.290940
  O      -0.597728     -1.402987     -3.267268
  O      -1.956439     -2.759861     -2.280180
  N       1.924001      0.252873      0.557730
  C       2.411127     -1.123908      0.573352
  C       2.403355     -1.643440      2.003265
  N       3.239926     -0.773545      2.835582
  C       2.754792      0.608585      2.815631
  C       2.756188      1.123530      1.383484
  H       2.352744      2.137190      1.351960
  H       3.798008      1.161428      1.025004
  H       3.410385      1.222336      3.436154
  H       1.731417      0.690743      3.214666
  H       2.805214     -2.657771      2.036924
  H       1.361623     -1.676743      2.359612
  H       3.436565     -1.206353      0.176942
  H      -0.156996     -0.445586     -1.128847
  H       1.867566      0.602759     -0.393606
  H       1.759772     -1.732620     -0.054941
  H       3.249833     -1.118528      3.788247
  H       2.021866      1.356593     -2.999437
  H       1.796563      2.463853     -1.972599
  O       1.495675      1.580827     -2.222032
  H      -5.581227      0.477799     -0.988123
39
Coordinates from ORCA-job /home/rudenko/2025/kie/for_orca/c6h5chno2ch3_piperazine/orca/ts_opt/ts_opt E -859.675614755508
  C      -2.826771      2.451298     -1.136787
  C      -1.847515      1.463173     -1.135888
  C      -2.206088      0.118869     -1.055567
  C      -3.555393     -0.227818     -0.986499
  C      -4.532844      0.759029     -1.002768
  C      -4.171147      2.100681     -1.074915
  H      -2.538414      3.491477     -1.191482
  H      -0.801330      1.733589     -1.198039
  H      -3.845743     -1.266959     -0.924776
  H      -4.934330      2.867981     -1.081243
  C      -1.117357     -0.930727     -1.011883
  C      -1.148932     -1.818001      0.219291
  H      -0.404112     -2.610566      0.148021
  H      -2.131022     -2.261932      0.367896
  H      -0.905375     -1.193626      1.078287
  N      -1.231936     -1.780968     -2.280972
  O      -0.585627     -1.422294     -3.254293
  O      -1.977074     -2.746843     -2.270770
  N       1.916957      0.256007      0.557308
  C       2.412695     -1.117815      0.560745
  C       2.405648     -1.651138      1.985770
  N       3.234304     -0.783706      2.828390
  C       2.739836      0.595891      2.820351
  C       2.741463      1.124373      1.392898
  H       2.331378      2.136136      1.370009
  H       3.784244      1.172535      1.037078
  H       3.389773      1.208542      3.448136
  H       1.714463      0.667592      3.217767
  H       2.813592     -2.663496      2.010642
  H       1.363164     -1.693932      2.338956
  H       3.438914     -1.190088      0.164150
  H      -0.155026     -0.442430     -1.128835
  H       1.859201      0.613468     -0.390713
  H       1.765434     -1.725123     -0.072899
  H       3.244603     -1.137835      3.777988
  H       2.045869      1.365507     -2.986375
  H       1.789506      2.473041     -1.965663
  O       1.502815      1.585652     -2.218615
  H      -5.577824      0.480451     -0.954703
39
Coordinates from ORCA-job /home/rudenko/2025/kie/for_orca/c6h5chno2ch3_piperazine/orca/ts_opt/ts_opt E -859.675626388655
  C      -2.828956      2.451154     -1.083619
  C      -1.848396      1.464328     -1.096452
  C      -2.206764      0.118179     -1.061581
  C      -3.556725     -0.231460     -1.026817
  C      -4.535222      0.754297     -1.030464
  C      -4.173930      2.097775     -1.054576
  H      -2.541011      3.492381     -1.102877
  H      -0.802194      1.738531     -1.136021
  H      -3.846581     -1.271998     -1.000179
  H      -4.937822      2.864245     -1.049848
  C      -1.119382     -0.932857     -1.019889
  C      -1.164903     -1.827791      0.204841
  H      -0.415584     -2.616567      0.140938
  H      -2.147422     -2.276822      0.334537
  H      -0.940330     -1.207703      1.072180
  N      -1.225516     -1.772639     -2.296855
  O      -0.603535     -1.383247     -3.274032
  O      -1.939848     -2.761400     -2.288713
  N       1.926039      0.249649      0.554254
  C       2.407449     -1.129023      0.578457
  C       2.397746     -1.639389      2.011832
  N       3.238143     -0.767959      2.838606
  C       2.760303      0.617229      2.809045
  C       2.763684      1.121849      1.373108
  H       2.365689      2.137951      1.334446
  H       3.805678      1.151281      1.013035
  H       3.419675      1.232308      3.424540
  H       1.737175      0.708264      3.208378
  H       2.794683     -2.655631      2.052096
  H       1.356007     -1.665246      2.368638
  H       3.432404     -1.218080      0.181963
  H      -0.155084     -0.445476     -1.125920
  H       1.871326      0.594362     -0.398525
  H       1.753723     -1.739599     -0.045060
  H       3.245947     -1.106554      3.793872
  H       2.003747      1.348971     -3.004031
  H       1.801241      2.456757     -1.971215
  O       1.489033      1.576471     -2.219002
  H      -5.580487      0.473458     -1.009092
39
Coordinates from ORCA-job /home/rudenko/2025/kie/for_orca/c6h5chno2ch3_piperazine/orca/ts_opt/ts_opt E -859.675619872384
  C      -2.822579      2.451182     -1.102091
  C      -1.843037      1.463193     -1.109706
  C      -2.201675      0.117847     -1.056798
  C      -3.551501     -0.230361     -1.009673
  C      -4.528744      0.757472     -1.016207
  C      -4.166560      2.100655     -1.057705
  H      -2.533123      3.494339     -1.130524
  H      -0.796674      1.735544     -1.157696
  H      -3.843011     -1.272516     -0.973386
  H      -4.929540      2.869049     -1.055113
  C      -1.113732     -0.932904     -1.014690
  C      -1.153165     -1.824941      0.212513
  H      -0.405149     -2.614688      0.145320
  H      -2.135306     -2.272653      0.348619
  H      -0.920536     -1.203868      1.076996
  N      -1.223903     -1.776677     -2.288378
  O      -0.598386     -1.393832     -3.266818
  O      -1.945589     -2.761047     -2.276930
  N       1.916697      0.252076      0.550430
  C       2.404752     -1.124285      0.567931
  C       2.395643     -1.642431      1.998465
  N       3.230663     -0.771984      2.831473
  C       2.744412      0.610048      2.809790
  C       2.747383      1.123547      1.376997
  H       2.343514      2.137293      1.344148
  H       3.789844      1.161721      1.019767
  H       3.398674      1.225252      3.430419
  H       1.720218      0.691806      3.207582
  H       2.796301     -2.657275      2.033803
  H       1.353100     -1.673778      2.352123
  H       3.430052     -1.206336      0.171147
  H      -0.150077     -0.444767     -1.124672
  H       1.863201      0.600670     -0.401275
  H       1.753602     -1.735761     -0.057711
  H       3.239312     -1.116471      3.784489
  H       2.019046      1.351036     -2.994088
  H       1.796499      2.459228     -1.967291
  O       1.493389      1.576466     -2.216309
  H      -5.574015      0.478152     -0.984953
39
Coordinates from ORCA-job /home/rudenko/2025/kie/for_orca/c6h5chno2ch3_piperazine/orca/ts_opt/ts_opt E -859.675607988920
  C      -2.835686      2.449571     -1.056494
  C      -1.855642      1.462141     -1.078968
  C      -2.214448      0.116065     -1.071530
  C      -3.564914     -0.233722     -1.058734
  C      -4.542250      0.754276     -1.049482
  C      -4.179791      2.098321     -1.041967
  H      -2.545209      3.495100     -1.045507
  H      -0.809014      1.737093     -1.103568
  H      -3.857328     -1.278565     -1.062707
  H      -4.942919      2.866935     -1.025143
  C      -1.128188     -0.936381     -1.029325
  C      -1.182179     -1.835209      0.192063
  H      -0.429194     -2.620976      0.134152
  H      -2.164210     -2.288353      0.310481
  H      -0.971792     -1.216865      1.064481
  N      -1.228981     -1.771592     -2.309802
  O      -0.620355     -1.366038     -3.288774
  O      -1.925978     -2.772979     -2.302175
  N       1.937630      0.246933      0.558873
  C       2.410805     -1.134250      0.594784
  C       2.401175     -1.631026      2.032582
  N       3.249906     -0.757365      2.848603
  C       2.781786      0.630245      2.807315
  C       2.783750      1.121295      1.366903
  H       2.392389      2.139119      1.319863
  H       3.824332      1.140264      1.003362
  H       3.447450      1.246009      3.415062
  H       1.761059      0.732136      3.208821
  H       2.792734     -2.648833      2.081184
  H       1.360850     -1.647982      2.393699
  H       3.435116     -1.232987      0.199061
  H      -0.162336     -0.449787     -1.128295
  H       1.882961      0.583976     -0.396938
  H       1.753859     -1.745643     -0.024519
  H       3.257872     -1.086650      3.806811
  H       1.981438      1.341212     -3.017203
  H       1.809388      2.448264     -1.979093
  O       1.483862      1.572321     -2.223110
  H      -5.587948      0.473927     -1.044762
39
Coordinates from ORCA-job /home/rudenko/2025/kie/for_orca/c6h5chno2ch3_piperazine/orca/ts_opt/ts_opt E -859.675624068317
  C      -2.827397      2.450481     -1.057921
  C      -1.847314      1.463186     -1.076944
  C      -2.206465      0.116918     -1.063327
  C      -3.556788     -0.232588     -1.045635
  C      -4.534677      0.754201     -1.043134
  C      -4.172276      2.098224     -1.043320
  H      -2.538522      3.492390     -1.058757
  H      -0.800745      1.737269     -1.104972
  H      -3.847468     -1.273713     -1.036080
  H      -4.935668      2.865645     -1.032773
  C      -1.119974     -0.935303     -1.023442
  C      -1.171088     -1.834473      0.197802
  H      -0.418493     -2.620333      0.137093
  H      -2.153077     -2.287409      0.317421
  H      -0.956111     -1.217111      1.069606
  N      -1.222751     -1.769404     -2.304360
  O      -0.616922     -1.361325     -3.284836
  O      -1.919057     -2.771682     -2.296316
  N       1.928305      0.247038      0.551399
  C       2.404443     -1.133293      0.585869
  C       2.393721     -1.632412      2.023141
  N       3.239092     -0.758732      2.842400
  C       2.767457      0.628136      2.802664
  C       2.770983      1.121544      1.362874
  H       2.377509      2.138954      1.316994
  H       3.812443      1.143558      1.001212
  H       3.430384      1.245000      3.412451
  H       1.745465      0.726789      3.202642
  H       2.785521     -2.650260      2.071094
  H       1.352150     -1.649978      2.380755
  H       3.428760     -1.229251      0.189438
  H      -0.154761     -0.448053     -1.124023
  H       1.875996      0.584870     -0.404123
  H       1.748232     -1.746908     -0.032131
  H       3.246064     -1.089968      3.800175
  H       1.983838      1.338341     -3.009168
  H       1.806722      2.446174     -1.972369
  O       1.482568      1.569521     -2.216840
  H      -5.580097      0.473956     -1.034559
39
Coordinates from ORCA-job /home/rudenko/2025/kie/for_orca/c6h5chno2ch3_piperazine/orca/ts_opt/ts_opt E -859.675550433728
  C      -2.848784      2.450168     -1.060617
  C      -1.869045      1.462613     -1.084683
  C      -2.228876      0.116060     -1.079184
  C      -3.579884     -0.233881     -1.066276
  C      -4.558143      0.751734     -1.061359
  C      -4.194562      2.097146     -1.049517
  H      -2.560357      3.489455     -1.061078
  H      -0.822594      1.737376     -1.110035
  H      -3.869287     -1.271728     -1.057336
  H      -4.957937      2.863979     -1.035405
  C      -1.143377     -0.936561     -1.036594
  C      -1.199065     -1.835853      0.183794
  H      -0.445462     -2.621070      0.127323
  H      -2.180919     -2.289667      0.302551
  H      -0.993249     -1.216624      1.056614
  N      -1.241868     -1.771141     -2.318213
  O      -0.622558     -1.371695     -3.292732
  O      -1.947189     -2.766106     -2.315644
  N       1.952855      0.247478      0.572369
  C       2.424635     -1.134044      0.605748
  C       2.416947     -1.633227      2.042769
  N       3.267842     -0.759993      2.857523
  C       2.803022      0.629283      2.817649
  C       2.802847      1.120809      1.377345
  H       2.413144      2.139589      1.331111
  H       3.842652      1.137491      1.010600
  H       3.471846      1.243225      3.424074
  H       1.783154      0.734250      3.221663
  H       2.810491     -2.650583      2.088946
  H       1.378547     -1.653346      2.408995
  H       3.449518     -1.232845      0.210868
  H      -0.177183     -0.450890     -1.135271
  H       1.892985      0.586083     -0.381868
  H       1.768754     -1.741448     -0.017799
  H       3.277211     -1.089441      3.815851
  H       1.986471      1.348395     -3.024504
  H       1.812325      2.455178     -1.983957
  O       1.488577      1.578562     -2.229470
  H      -5.603485      0.471267     -1.054249
39
Coordinates from ORCA-job /home/rudenko/2025/kie/for_orca/c6h5chno2ch3_piperazine/orca/ts_opt/ts_opt E -859.675603333455
  C      -2.837484      2.448669     -1.038952
  C      -1.857417      1.461528     -1.064347
  C      -2.216905      0.115637     -1.072395
  C      -3.567193     -0.233350     -1.069991
  C      -4.544568      0.754144     -1.059269
  C      -4.182283      2.096913     -1.039030
  H      -2.547680      3.491733     -1.019541
  H      -0.810598      1.735979     -1.080432
  H      -3.858974     -1.276266     -1.081385
  H      -4.945557      2.864505     -1.021934
  C      -1.131404     -0.937591     -1.033009
  C      -1.189401     -1.840323      0.185225
  H      -0.433677     -2.623627      0.129447
  H      -2.170962     -2.296648      0.295828
  H      -0.986547     -1.224208      1.060945
  N      -1.229416     -1.767219     -2.317396
  O      -0.631308     -1.347209     -3.298109
  O      -1.914488     -2.777567     -2.311677
  N       1.942451      0.245322      0.559138
  C       2.411539     -1.137292      0.601716
  C       2.401048     -1.626791      2.042199
  N       3.253316     -0.751861      2.853196
  C       2.790935      0.637843      2.804359
  C       2.793336      1.120800      1.361049
  H       2.406097      2.140254      1.308760
  H       3.833619      1.133261      0.995705
  H       3.459894      1.254464      3.407741
  H       1.770883      0.746643      3.206561
  H       2.788823     -2.645947      2.096043
  H       1.360876     -1.637874      2.404063
  H       3.435469     -1.240971      0.206002
  H      -0.165167     -0.451087     -1.128260
  H       1.888313      0.577525     -0.398257
  H       1.752925     -1.750290     -0.014162
  H       3.260234     -1.075891      3.813416
  H       1.967530      1.333792     -3.020339
  H       1.814204      2.441094     -1.978849
  O       1.479725      1.567663     -2.220633
  H      -5.590189      0.474242     -1.063425
39
Coordinates from ORCA-job /home/rudenko/2025/kie/for_orca/c6h5chno2ch3_piperazine/orca/ts_opt/ts_opt E -859.675487913885
  C      -2.849966      2.445721     -1.005967
  C      -1.870161      1.458669     -1.041056
  C      -2.230116      0.113608     -1.083979
  C      -3.580223     -0.234021     -1.106920
  C      -4.557265      0.753706     -1.087142
  C      -4.194739      2.095153     -1.031251
  H      -2.560112      3.486738     -0.960554
  H      -0.823189      1.732794     -1.038079
  H      -3.871815     -1.275208     -1.142459
  H      -4.957848      2.862513     -1.006198
  C      -1.145559     -0.940841     -1.045724
  C      -1.213271     -1.849006      0.167888
  H      -0.453085     -2.628499      0.119167
  H      -2.194181     -2.310091      0.264845
  H      -1.027574     -1.234972      1.048916
  N      -1.235233     -1.763155     -2.335746
  O      -0.652514     -1.320170     -3.318087
  O      -1.899764     -2.788825     -2.333343
  N       1.961234      0.242546      0.568453
  C       2.419000     -1.143517      0.623747
  C       2.408558     -1.617731      2.069255
  N       3.271372     -0.741435      2.867828
  C       2.823686      0.652602      2.804337
  C       2.824798      1.119095      1.355585
  H       2.447510      2.141718      1.293112
  H       3.863263      1.116468      0.984944
  H       3.501873      1.268752      3.397876
  H       1.806579      0.777431      3.209409
  H       2.789036     -2.639176      2.132719
  H       1.370233     -1.617337      2.436187
  H       3.441848     -1.259678      0.228498
  H      -0.178314     -0.454746     -1.133059
  H       1.904360      0.565634     -0.391780
  H       1.755722     -1.755589      0.012239
  H       3.277731     -1.054136      3.831840
  H       1.937199      1.325391     -3.034728
  H       1.822430      2.431309     -1.986484
  O       1.471187      1.563234     -2.223436
  H      -5.602687      0.475052     -1.110853
39
Coordinates from ORCA-job /home/rudenko/2025/kie/for_orca/c6h5chno2ch3_piperazine/orca/ts_opt/ts_opt E -859.675560911704
  C      -2.826268      2.448371     -1.001067
  C      -1.846782      1.460766     -1.032661
  C      -2.207280      0.114985     -1.066814
  C      -3.558086     -0.234131     -1.088433
  C      -4.535587      0.752979     -1.076376
  C      -4.171519      2.097529     -1.022619
  H      -2.537004      3.488608     -0.965025
  H      -0.799604      1.733750     -1.034228
  H      -3.848731     -1.273349     -1.112639
  H      -4.934416      2.865362     -1.002540
  C      -1.122580     -0.939321     -1.030477
  C      -1.185965     -1.847503      0.183430
  H      -0.427034     -2.627652      0.129599
  H      -2.166829     -2.307814      0.282075
  H      -0.990796     -1.235571      1.063790
  N      -1.217714     -1.760635     -2.319959
  O      -0.641380     -1.320057     -3.303056
  O      -1.878155     -2.786315     -2.315728
  N       1.935614      0.241442      0.547132
  C       2.399113     -1.142733      0.602775
  C       2.386455     -1.617880      2.047926
  N       3.243598     -0.740551      2.850856
  C       2.787294      0.650494      2.789274
  C       2.790835      1.119876      1.341574
  H       2.408318      2.140520      1.280403
  H       3.830901      1.124559      0.975689
  H       3.459210      1.270120      3.386322
  H       1.768017      0.767245      3.191016
  H       2.766410     -2.639206      2.112007
  H       1.345218     -1.616919      2.407355
  H       3.421635     -1.254547      0.206015
  H      -0.155959     -0.452538     -1.119609
  H       1.886645      0.564629     -0.413749
  H       1.736373     -1.761182     -0.003482
  H       3.248863     -1.055822      3.813912
  H       1.936645      1.317915     -3.019776
  H       1.815917      2.424739     -1.974110
  O       1.465805      1.556151     -2.211024
  H      -5.581178      0.473686     -1.097778
39
Coordinates from ORCA-job /home/rudenko/2025/kie/for_orca/c6h5chno2ch3_piperazine/orca/ts_opt/ts_opt E -859.675458877621
  C      -2.842348      2.444222     -0.961864
  C      -1.862971      1.456984     -1.004378
  C      -2.223955      0.112944     -1.080094
  C      -3.574592     -0.235070     -1.135492
  C      -4.551882      0.751950     -1.114249
  C      -4.187618      2.094835     -1.015344
  H      -2.552721      3.483458     -0.890970
  H      -0.815471      1.728711     -0.982033
  H      -3.865352     -1.273634     -1.192537
  H      -4.950512      2.862375     -0.986265
  C      -1.141068     -0.942870     -1.044654
  C      -1.216160     -1.856959      0.164203
  H      -0.452056     -2.632684      0.118710
  H      -2.195970     -2.322767      0.246942
  H      -1.040391     -1.247045      1.050238
  N      -1.228263     -1.755619     -2.339757
  O      -0.660639     -1.302400     -3.318841
  O      -1.870946     -2.790119     -2.342667
  N       1.959277      0.239450      0.559064
  C       2.409535     -1.148641      0.628623
  C       2.397436     -1.606602      2.078939
  N       3.268001     -0.728556      2.866898
  C       2.829134      0.667251      2.789669
  C       2.829801      1.118359      1.336279
  H       2.458777      2.142390      1.264338
  H       3.867335      1.105930      0.963699
  H       3.512476      1.285570      3.375042
  H       1.813830      0.802535      3.195490
  H       2.768493     -2.630473      2.153452
  H       1.358253     -1.592186      2.444580
  H       3.430550     -1.274852      0.231947
  H      -0.173122     -0.456932     -1.124449
  H       1.906186      0.551625     -0.405166
  H       1.740890     -1.765723      0.027711
  H       3.273750     -1.031159      3.833842
  H       1.899892      1.307986     -3.034571
  H       1.824747      2.413062     -1.981864
  O       1.455078      1.550850     -2.212464
  H      -5.597401      0.473804     -1.162007
39
Coordinates from ORCA-job /home/rudenko/2025/kie/for_orca/c6h5chno2ch3_piperazine/orca/ts_opt/ts_opt E -859.675321520471
  C      -2.847477      2.437152     -0.906338
  C      -1.868883      1.449927     -0.958735
  C      -2.230066      0.109998     -1.085282
  C      -3.579042     -0.232970     -1.179601
  C      -4.555027      0.755300     -1.147955
  C      -4.191618      2.092523     -1.000775
  H      -2.558283      3.472109     -0.796139
  H      -0.821294      1.716683     -0.905178
  H      -3.869873     -1.268698     -1.274438
  H      -4.954057      2.859988     -0.963956
  C      -1.148478     -0.947594     -1.054431
  C      -1.235044     -1.872075      0.146593
  H      -0.463776     -2.641124      0.108782
  H      -2.212649     -2.346073      0.207559
  H      -1.080828     -1.267729      1.040973
  N      -1.225224     -1.746032     -2.359011
  O      -0.692117     -1.252162     -3.341205
  O      -1.827051     -2.807019     -2.367298
  N       1.973253      0.234713      0.559047
  C       2.408464     -1.157575      0.650173
  C       2.393062     -1.590110      2.107562
  N       3.276672     -0.710373      2.879052
  C       2.857475      0.690052      2.777460
  C       2.859052      1.115824      1.316291
  H       2.501429      2.143537      1.228175
  H       3.894498      1.083039      0.938958
  H       3.551313      1.309105      3.349616
  H       1.845409      0.847130      3.183827
  H       2.750342     -2.617549      2.199827
  H       1.353113     -1.554536      2.473197
  H       3.427158     -1.301541      0.253501
  H      -0.179733     -0.461539     -1.123099
  H       1.920562      0.531507     -0.410294
  H       1.732880     -1.777596      0.061155
  H       3.279163     -0.995321      3.851495
  H       1.847346      1.289007     -3.043033
  H       1.832204      2.390719     -1.984405
  O       1.436455      1.537611     -2.205235
  H      -5.599331      0.481693     -1.226836
39
Coordinates from ORCA-job /home/rudenko/2025/kie/for_orca/c6h5chno2ch3_piperazine/orca/ts_opt/ts_opt E -859.675140930755
  C      -2.850692      2.428435     -0.846114
  C      -1.873081      1.441081     -0.908014
  C      -2.233878      0.107295     -1.087984
  C      -3.580517     -0.229600     -1.226967
  C      -4.555195      0.759729     -1.186229
  C      -4.192946      2.090285     -0.984878
  H      -2.562217      3.459164     -0.691525
  H      -0.825775      1.700201     -0.820223
  H      -3.871000     -1.261989     -1.364974
  H      -4.954892      2.857856     -0.940667
  C      -1.154409     -0.952246     -1.061491
  C      -1.252916     -1.887483      0.130556
  H      -0.474592     -2.649815      0.100015
  H      -2.227704     -2.369606      0.169432
  H      -1.119961     -1.289654      1.032615
  N      -1.221080     -1.734954     -2.375497
  O      -0.716612     -1.211026     -3.354622
  O      -1.783317     -2.815655     -2.393373
  N       1.985160      0.229473      0.556320
  C       2.405061     -1.166411      0.670506
  C       2.387118     -1.571721      2.135307
  N       3.284420     -0.690685      2.889075
  C       2.884814      0.713477      2.762357
  C       2.886153      1.112419      1.293557
  H       2.541678      2.143032      1.188576
  H       3.919145      1.059436      0.911991
  H       3.589379      1.333312      3.320477
  H       1.876553      0.892484      3.169081
  H       2.729456     -2.602340      2.246248
  H       1.347791     -1.513618      2.500125
  H       3.420936     -1.328877      0.273801
  H      -0.184793     -0.466681     -1.118497
  H       1.933030      0.509998     -0.418142
  H       1.721083     -1.789919      0.094469
  H       3.284478     -0.957187      3.866649
  H       1.788089      1.269798     -3.048912
  H       1.835668      2.366889     -1.986253
  O       1.413569      1.523479     -2.195630
  H      -5.598005      0.491623     -1.301164
39
Coordinates from ORCA-job /home/rudenko/2025/kie/for_orca/c6h5chno2ch3_piperazine/orca/ts_opt/ts_opt E -859.674941647083
  C      -2.859085      2.418630     -0.796320
  C      -1.882996      1.430594     -0.865969
  C      -2.242920      0.103848     -1.093259
  C      -3.586637     -0.224970     -1.269256
  C      -4.559487      0.766059     -1.219221
  C      -4.198711      2.088527     -0.973208
  H      -2.571759      3.443382     -0.605917
  H      -0.836786      1.680836     -0.746721
  H      -3.876614     -1.252397     -1.443365
  H      -4.959845      2.856554     -0.922629
  C      -1.165398     -0.957740     -1.071456
  C      -1.272923     -1.903742      0.111889
  H      -0.487715     -2.659008      0.087867
  H      -2.244305     -2.394211      0.131943
  H      -1.160471     -1.312159      1.021728
  N      -1.222432     -1.726562     -2.394285
  O      -0.749999     -1.168932     -3.373576
  O      -1.745881     -2.827984     -2.419140
  N       2.003178      0.225551      0.558977
  C       2.408121     -1.173137      0.693262
  C       2.385682     -1.554386      2.163114
  N       3.295176     -0.673386      2.902325
  C       2.915447      0.733910      2.752501
  C       2.918440      1.109152      1.277379
  H       2.586749      2.142380      1.157229
  H       3.948991      1.037141      0.892462
  H       3.629626      1.352848      3.299254
  H       1.910531      0.933877      3.157667
  H       2.714327     -2.587492      2.291406
  H       1.345196     -1.475971      2.525446
  H       3.421697     -1.351971      0.297784
  H      -0.195045     -0.472097     -1.119061
  H       1.949646      0.491957     -0.419269
  H       1.718485     -1.797982      0.127920
  H       3.291470     -0.922933      3.884386
  H       1.738819      1.255736     -3.056147
  H       1.840775      2.347908     -1.992115
  O       1.396732      1.513109     -2.190650
  H      -5.600081      0.505061     -1.362977
39
Coordinates from ORCA-job /home/rudenko/2025/kie/for_orca/c6h5chno2ch3_piperazine/orca/ts_opt/ts_opt E -859.674703973187
  C      -2.868513      2.407608     -0.747273
  C      -1.894181      1.418665     -0.825239
  C      -2.253082      0.100195     -1.098798
  C      -3.593519     -0.219588     -1.311978
  C      -4.564480      0.772934     -1.253313
  C      -4.205172      2.086636     -0.961674
  H      -2.582425      3.426186     -0.520194
  H      -0.849499      1.658820     -0.674806
  H      -3.882672     -1.241243     -1.523076
  H      -4.965283      2.855267     -0.904770
  C      -1.178507     -0.963976     -1.082467
  C      -1.293254     -1.920334      0.092508
  H      -0.501519     -2.668724      0.074188
  H      -2.260813     -2.418884      0.095859
  H      -1.199484     -1.335128      1.009719
  N      -1.230453     -1.720515     -2.412754
  O      -0.783582     -1.142344     -3.390529
  O      -1.722072     -2.834780     -2.443930
  N       2.024702      0.223206      0.563016
  C       2.414713     -1.177773      0.716166
  C       2.385636     -1.536306      2.189681
  N       3.305995     -0.656484      2.916979
  C       2.947188      0.753502      2.744725
  C       2.953427      1.106508      1.263987
  H       2.634506      2.141967      1.129509
  H       3.981603      1.016167      0.876927
  H       3.670400      1.370360      3.281973
  H       1.945377      0.974270      3.146591
  H       2.700413     -2.571386      2.335224
  H       1.342912     -1.438315      2.546330
  H       3.426286     -1.371885      0.322716
  H      -0.207766     -0.478053     -1.121879
  H       1.968869      0.476018     -0.418518
  H       1.720245     -1.803565      0.160643
  H       3.297184     -0.889839      3.902923
  H       1.692133      1.244678     -3.064000
  H       1.845909      2.331475     -2.000216
  O       1.381582      1.505102     -2.187625
  H      -5.602803      0.519560     -1.426621
39
Coordinates from ORCA-job /home/rudenko/2025/kie/for_orca/c6h5chno2ch3_piperazine/orca/ts_opt/ts_opt E -859.674420593756
  C      -2.880437      2.396383     -0.708539
  C      -1.908273      1.406140     -0.793256
  C      -2.266388      0.096016     -1.104996
  C      -3.603812     -0.214104     -1.347097
  C      -4.572569      0.780233     -1.279989
  C      -4.214180      2.085075     -0.952831
  H      -2.595206      3.408274     -0.453391
  H      -0.865578      1.636713     -0.616324
  H      -3.892557     -1.229469     -1.587503
  H      -4.972845      2.854724     -0.890543
  C      -1.194480     -0.970581     -1.095268
  C      -1.312717     -1.936385      0.072023
  H      -0.515264     -2.678433      0.057496
  H      -2.276457     -2.442392      0.062896
  H      -1.234601     -1.357556      0.995912
  N      -1.243454     -1.716871     -2.432121
  O      -0.823540     -1.116936     -3.410869
  O      -1.706503     -2.844039     -2.467261
  N       2.049872      0.222342      0.569298
  C       2.426442     -1.180306      0.738654
  C       2.388343     -1.520074      2.214416
  N       3.316204     -0.641959      2.934366
  C       2.977749      0.770190      2.741702
  C       2.990047      1.104228      1.256161
  H       2.683226      2.141688      1.109200
  H       4.016480      0.997326      0.868903
  H       3.708145      1.384044      3.272796
  H       1.978146      1.010059      3.137987
  H       2.690658     -2.556554      2.375646
  H       1.342465     -1.405551      2.562269
  H       3.436926     -1.386816      0.348509
  H      -0.223576     -0.483432     -1.129391
  H       1.991120      0.463723     -0.413720
  H       1.729741     -1.805849      0.190633
  H       3.300152     -0.861136      3.923497
  H       1.657679      1.237260     -3.073462
  H       1.854262      2.319109     -2.011394
  O       1.373391      1.500113     -2.189112
  H      -5.608613      0.534805     -1.475295
39
Coordinates from ORCA-job /home/rudenko/2025/kie/for_orca/c6h5chno2ch3_piperazine/orca/ts_opt/ts_opt E -859.674106870132
  C      -2.890469      2.383637     -0.667715
  C      -1.921074      1.391500     -0.759733
  C      -2.279291      0.091101     -1.110211
  C      -3.613435     -0.207835     -1.382115
  C      -4.579362      0.788683     -1.306961
  C      -4.221191      2.083758     -0.942335
  H      -2.605678      3.388286     -0.382977
  H      -0.880327      1.611381     -0.555987
  H      -3.901986     -1.216005     -1.652966
  H      -4.977751      2.855001     -0.874683
  C      -1.210621     -0.977854     -1.108126
  C      -1.331190     -1.953062      0.051137
  H      -0.528352     -2.689296      0.039074
  H      -2.291084     -2.466034      0.030427
  H      -1.266941     -1.381461      0.981098
  N      -1.258607     -1.713457     -2.451297
  O      -0.861314     -1.098022     -3.428652
  O      -1.696133     -2.849429     -2.491931
  N       2.075424      0.221809      0.573628
  C       2.439215     -1.182273      0.760306
  C       2.391000     -1.502762      2.238860
  N       3.324544     -0.625939      2.952715
  C       3.006141      0.787640      2.738579
  C       3.025912      1.101971      1.248253
  H       2.731244      2.141059      1.088315
  H       4.051065      0.978547      0.862740
  H       3.742847      1.398806      3.264221
  H       2.008457      1.046359      3.127698
  H       2.680445     -2.540214      2.416349
  H       1.342512     -1.371864      2.575245
  H       3.448891     -1.400935      0.374370
  H      -0.240171     -0.489363     -1.137573
  H       2.013968      0.451485     -0.410800
  H       1.739715     -1.808308      0.219515
  H       3.300121     -0.830613      3.944755
  H       1.621061      1.229960     -3.082922
  H       1.861627      2.306321     -2.023748
  O       1.363906      1.495088     -2.190934
  H      -5.613118      0.552334     -1.525620
39
Coordinates from ORCA-job /home/rudenko/2025/kie/for_orca/c6h5chno2ch3_piperazine/orca/ts_opt/ts_opt E -859.673784835325
  C      -2.901326      2.370895     -0.632661
  C      -1.935024      1.376500     -0.730794
  C      -2.293573      0.086023     -1.115043
  C      -3.624623     -0.201437     -1.411588
  C      -4.587523      0.797467     -1.328241
  C      -4.229095      2.082840     -0.932845
  H      -2.616573      3.368121     -0.323528
  H      -0.896768      1.586108     -0.503013
  H      -3.913361     -1.202297     -1.708206
  H      -4.983187      2.856054     -0.860389
  C      -1.227370     -0.984606     -1.121642
  C      -1.348539     -1.969001      0.029252
  H      -0.541181     -2.700148      0.017653
  H      -2.304985     -2.488058     -0.001031
  H      -1.295942     -1.405292      0.964765
  N      -1.274076     -1.709401     -2.471254
  O      -0.900322     -1.075437     -3.447379
  O      -1.686528     -2.855109     -2.517811
  N       2.101943      0.220943      0.577708
  C       2.454293     -1.183947      0.781457
  C       2.395308     -1.486481      2.263131
  N       3.332179     -0.610242      2.972609
  C       3.031959      0.803969      2.737644
  C       3.060847      1.099124      1.242947
  H       2.777919      2.139532      1.070120
  H       4.085470      0.959823      0.861459
  H       3.773507      1.412996      3.259083
  H       2.035614      1.079987      3.118285
  H       2.672871     -2.524484      2.455766
  H       1.345001     -1.340945      2.587207
  H       3.463725     -1.413488      0.400996
  H      -0.257237     -0.494322     -1.147867
  H       2.037797      0.439901     -0.407777
  H       1.752781     -1.810061      0.246479
  H       3.298628     -0.801193      3.967144
  H       1.589073      1.222244     -3.093346
  H       1.870410      2.293344     -2.038502
  O       1.356932      1.489747     -2.195306
  H      -5.619023      0.570328     -1.565481
39
Coordinates from ORCA-job /home/rudenko/2025/kie/for_orca/c6h5chno2ch3_piperazine/orca/ts_opt/ts_opt E -859.673487229538
  C      -2.911338      2.357107     -0.594841
  C      -1.948474      1.360068     -0.699470
  C      -2.307512      0.080564     -1.118890
  C      -3.635062     -0.194106     -1.441403
  C      -4.594540      0.807428     -1.350172
  C      -4.235777      2.082282     -0.921752
  H      -2.626691      3.346233     -0.259600
  H      -0.913033      1.558243     -0.446543
  H      -3.923949     -1.186752     -1.764974
  H      -4.986995      2.857820     -0.844514
  C      -1.243612     -0.991558     -1.134937
  C      -1.365209     -1.985629      0.006976
  H      -0.553579     -2.712213     -0.005332
  H      -2.318361     -2.510183     -0.033282
  H      -1.322994     -1.430646      0.947892
  N      -1.288773     -1.704176     -2.491329
  O      -0.935530     -1.054496     -3.463655
  O      -1.676424     -2.857396     -2.546174
  N       2.128439      0.219527      0.580019
  C       2.468883     -1.185890      0.802114
  C       2.399107     -1.468816      2.287718
  N       3.339045     -0.592432      2.992181
  C       3.056013      0.821593      2.735585
  C       3.094589      1.096121      1.236801
  H       2.823638      2.137343      1.049824
  H       4.119016      0.940502      0.861178
  H       3.801900      1.429363      3.252368
  H       2.061003      1.114320      3.107132
  H       2.664281     -2.507024      2.495797
  H       1.347917     -1.308247      2.599159
  H       3.477938     -1.427178      0.427886
  H      -0.274347     -0.500026     -1.157732
  H       2.062252      0.427145     -0.407629
  H       1.763361     -1.813322      0.272772
  H       3.296606     -0.769124      3.988987
  H       1.554022      1.212528     -3.102359
  H       1.879070      2.277824     -2.053667
  O       1.348686      1.482728     -2.198583
  H      -5.623564      0.590476     -1.607548
39
Coordinates from ORCA-job /home/rudenko/2025/kie/for_orca/c6h5chno2ch3_piperazine/orca/ts_opt/ts_opt E -859.673188143702
  C      -2.926324      2.346249     -0.569905
  C      -1.965906      1.347351     -0.679395
  C      -2.324385      0.076678     -1.123480
  C      -3.649416     -0.188431     -1.462832
  C      -4.606820      0.814501     -1.364270
  C      -4.248146      2.081377     -0.914491
  H      -2.641802      3.329229     -0.216713
  H      -0.933914      1.537510     -0.407692
  H      -3.938302     -1.174814     -1.805796
  H      -4.997312      2.858537     -0.833268
  C      -1.261674     -0.996185     -1.149043
  C      -1.382384     -1.998840     -0.015975
  H      -0.568302     -2.721979     -0.031711
  H      -2.333319     -2.527223     -0.062454
  H      -1.347160     -1.452247      0.929940
  N      -1.305555     -1.698287     -2.511345
  O      -0.965710     -1.034997     -3.480022
  O      -1.676558     -2.857080     -2.573645
  N       2.157472      0.217861      0.585067
  C       2.487795     -1.186866      0.822471
  C       2.407102     -1.454720      2.310876
  N       3.348329     -0.578091      3.012502
  C       3.079495      0.835382      2.738500
  C       3.128476      1.092782      1.236749
  H       2.868214      2.134451      1.037303
  H       4.153355      0.922984      0.868531
  H       3.828283      1.441892      3.252579
  H       2.085279      1.141731      3.101068
  H       2.662842     -2.492891      2.530576
  H       1.355177     -1.282984      2.611941
  H       3.497288     -1.437251      0.455595
  H      -0.292001     -0.502925     -1.170042
  H       2.088748      0.416422     -0.403147
  H       1.781396     -1.813294      0.296519
  H       3.297734     -0.743581      4.010845
  H       1.531959      1.203019     -3.113682
  H       1.892389      2.263544     -2.071597
  O       1.347654      1.476401     -2.206477
  H      -5.633996      0.604788     -1.634080
39
Coordinates from ORCA-job /home/rudenko/2025/kie/for_orca/c6h5chno2ch3_piperazine/orca/ts_opt/ts_opt E -859.672955470464
  C      -2.939843      2.333904     -0.537897
  C      -1.982241      1.332809     -0.653254
  C      -2.340066      0.072293     -1.127161
  C      -3.661846     -0.181268     -1.487399
  C      -4.616597      0.823516     -1.381789
  C      -4.258284      2.081013     -0.904405
  H      -2.655907      3.309205     -0.163534
  H      -0.953705      1.512839     -0.359841
  H      -3.950488     -1.159777     -1.851910
  H      -5.004968      2.860141     -0.819085
  C      -1.278522     -1.001387     -1.162858
  C      -1.398745     -2.014070     -0.039192
  H      -0.581681     -2.734373     -0.058868
  H      -2.347423     -2.545835     -0.093758
  H      -1.369843     -1.476931      0.911735
  N      -1.320414     -1.690605     -2.531976
  O      -0.996068     -1.013017     -3.495261
  O      -1.671393     -2.854416     -2.604194
  N       2.185962      0.215416      0.587467
  C       2.504625     -1.189117      0.842837
  C       2.413540     -1.438117      2.335180
  N       3.356779     -0.560328      3.032057
  C       3.101421      0.851865      2.738519
  C       3.160844      1.089785      1.233807
  H       2.911428      2.131188      1.019922
  H       4.186306      0.905421      0.874390
  H       3.852812      1.458404      3.248730
  H       2.108050      1.171538      3.091671
  H       2.658581     -2.475929      2.568165
  H       1.362072     -1.253540      2.625632
  H       3.514024     -1.451184      0.483824
  H      -0.309499     -0.507662     -1.180782
  H       2.115950      0.403367     -0.403517
  H       1.793500     -1.817027      0.320645
  H       3.298672     -0.713094      4.032014
  H       1.503935      1.190216     -3.122193
  H       1.905952      2.244850     -2.088929
  O       1.344448      1.467248     -2.211337
  H      -5.641366      0.622660     -1.667455
39
Coordinates from ORCA-job /home/rudenko/2025/kie/for_orca/c6h5chno2ch3_piperazine/orca/ts_opt/ts_opt E -859.672735271140
  C      -2.961131      2.326639     -0.523867
  C      -2.003957      1.325420     -0.642293
  C      -2.359247      0.070906     -1.131857
  C      -3.679270     -0.177569     -1.501786
  C      -4.634082      0.826558     -1.390511
  C      -4.277406      2.079173     -0.901131
  H      -2.678395      3.298073     -0.137699
  H      -0.979130      1.501848     -0.335823
  H      -3.966782     -1.152051     -1.879401
  H      -5.023565      2.858541     -0.813107
  C      -1.297607     -1.002374     -1.176909
  C      -1.416061     -2.023174     -0.061855
  H      -0.598574     -2.741983     -0.088387
  H      -2.364172     -2.555934     -0.119726
  H      -1.389017     -1.494321      0.893492
  N      -1.339176     -1.682037     -2.551071
  O      -1.018492     -0.995915     -3.509964
  O      -1.683598     -2.847591     -2.630542
  N       2.217237      0.213099      0.594205
  C       2.526240     -1.190181      0.862259
  C       2.425885     -1.427304      2.356767
  N       3.370062     -0.548918      3.051185
  C       3.124180      0.862303      2.745181
  C       3.193497      1.086782      1.238883
  H       2.952535      2.127769      1.013946
  H       4.220107      0.891648      0.888388
  H       3.876824      1.468437      3.253959
  H       2.131062      1.191116      3.090542
  H       2.664412     -2.464880      2.597611
  H       1.374864     -1.234922      2.641327
  H       3.536267     -1.460473      0.511400
  H      -0.327745     -0.508103     -1.193555
  H       2.145401      0.393615     -0.397065
  H       1.814639     -1.816296      0.341230
  H       3.306470     -0.693808      4.051964
  H       1.495514      1.178468     -3.133416
  H       1.927301      2.228684     -2.107840
  O       1.352369      1.459731     -2.221322
  H      -5.657460      0.629025     -1.683211
39
Coordinates from ORCA-job /home/rudenko/2025/kie/for_orca/c6h5chno2ch3_piperazine/orca/ts_opt/ts_opt E -859.672569751044
  C      -2.978832      2.315372     -0.494037
  C      -2.023013      1.313309     -0.617369
  C      -2.375344      0.068204     -1.134389
  C      -3.691792     -0.170721     -1.523347
  C      -4.645437      0.833859     -1.406444
  C      -4.291138      2.077990     -0.891663
  H      -2.698218      3.279376     -0.089199
  H      -1.002288      1.481168     -0.290672
  H      -3.977589     -1.137705     -1.919309
  H      -5.035879      2.858343     -0.800467
  C      -1.313585     -1.004701     -1.189949
  C      -1.431346     -2.036692     -0.084645
  H      -0.611799     -2.754272     -0.117628
  H      -2.378216     -2.570757     -0.150015
  H      -1.406902     -1.517931      0.875643
  N      -1.353375     -1.670259     -2.571225
  O      -1.047448     -0.969348     -3.523919
  O      -1.680075     -2.839599     -2.661962
  N       2.246514      0.208923      0.595044
  C       2.542966     -1.194115      0.882089
  C       2.433016     -1.411257      2.380337
  N       3.379711     -0.531056      3.068807
  C       3.143999      0.878074      2.744455
  C       3.223813      1.083730      1.235988
  H       2.992053      2.123378      0.996179
  H       4.251592      0.876538      0.895910
  H       3.897757      1.485733      3.249662
  H       2.151134      1.217148      3.080403
  H       2.661538     -2.448025      2.634105
  H       1.383242     -1.206408      2.656504
  H       3.552583     -1.477612      0.540369
  H      -0.343630     -0.511447     -1.202995
  H       2.175665      0.378608     -0.399181
  H       1.825935     -1.821707      0.364721
  H       3.310441     -0.663825      4.070930
  H       1.474926      1.161834     -3.139285
  H       1.948990      2.204876     -2.124851
  O       1.356034      1.447531     -2.225029
  H      -5.666004      0.643442     -1.713567
39
Coordinates from ORCA-job /home/rudenko/2025/kie/for_orca/c6h5chno2ch3_piperazine/orca/ts_opt/ts_opt E -859.672407429200
  C      -3.003235      2.309688     -0.483604
  C      -2.046343      1.308825     -0.609350
  C      -2.394833      0.068511     -1.138585
  C      -3.709575     -0.167826     -1.534982
  C      -4.664647      0.834781     -1.413343
  C      -4.313320      2.075352     -0.889853
  H      -2.724859      3.270816     -0.068883
  H      -1.029248      1.475842     -0.272299
  H      -3.993129     -1.131808     -1.942047
  H      -5.058567      2.855025     -0.796631
  C      -1.332419     -1.002800     -1.203215
  C      -1.447927     -2.043663     -0.107183
  H      -0.628819     -2.760602     -0.149789
  H      -2.395267     -2.576835     -0.174947
  H      -1.421763     -1.533862      0.857622
  N      -1.372859     -1.658674     -2.589304
  O      -1.067041     -0.951291     -3.537133
  O      -1.697423     -2.828045     -2.687492
  N       2.278396      0.205249      0.601454
  C       2.564659     -1.195954      0.900880
  C       2.447075     -1.401413      2.400794
  N       3.395377     -0.520332      3.085809
  C       3.165363      0.887376      2.751503
  C       3.254277      1.081209      1.242235
  H       3.028468      2.119555      0.991870
  H       4.283749      0.866801      0.911612
  H       3.918937      1.495991      3.255742
  H       2.172106      1.232067      3.080486
  H       2.670422     -2.437611      2.661508
  H       1.398399     -1.189763      2.674169
  H       3.574483     -1.488429      0.567836
  H      -0.361597     -0.510506     -1.214273
  H       2.207311      0.367285     -0.393216
  H       1.846825     -1.821619      0.384267
  H       3.322951     -0.646684      4.088510
  H       1.472152      1.146636     -3.147946
  H       1.976622      2.183897     -2.142673
  O       1.369076      1.437110     -2.233449
  H      -5.683778      0.645700     -1.726102
39
Coordinates from ORCA-job /home/rudenko/2025/kie/for_orca/c6h5chno2ch3_piperazine/orca/ts_opt/ts_opt E -859.672248723172
  C      -3.020166      2.298840     -0.456279
  C      -2.064502      1.297296     -0.587578
  C      -2.410470      0.066302     -1.141145
  C      -3.721910     -0.160664     -1.553704
  C      -4.675737      0.842427     -1.426545
  C      -4.326499      2.074549     -0.879968
  H      -2.743640      3.252595     -0.025149
  H      -1.051208      1.456624     -0.233771
  H      -4.003998     -1.117284     -1.976709
  H      -5.070262      2.855244     -0.783368
  C      -1.348215     -1.004264     -1.216165
  C      -1.462209     -2.057560     -0.130777
  H      -0.641382     -2.773391     -0.182174
  H      -2.408765     -2.591146     -0.205171
  H      -1.436030     -1.558630      0.839259
  N      -1.386949     -1.645356     -2.609592
  O      -1.095410     -0.922781     -3.550538
  O      -1.695630     -2.817815     -2.719986
  N       2.307044      0.199609      0.601767
  C       2.581168     -1.200360      0.920593
  C       2.454852     -1.385463      2.423328
  N       3.405754     -0.501930      3.101613
  C       3.182453      0.902987      2.750257
  C       3.281223      1.079082      1.239484
  H       3.061761      2.115076      0.974632
  H       4.312375      0.856515      0.919502
  H       3.935520      1.514749      3.251361
  H       2.188666      1.254580      3.070094
  H       2.669384     -2.420177      2.697058
  H       1.407430     -1.162186      2.689868
  H       3.590288     -1.506344      0.597578
  H      -0.377105     -0.513498     -1.222658
  H       2.238357      0.350415     -0.395426
  H       1.858775     -1.827068      0.407571
  H       3.329275     -0.616811      4.105454
  H       1.453100      1.127527     -3.149570
  H       2.000434      2.155609     -2.157319
  O       1.374461      1.422260     -2.233976
  H      -5.692232      0.660443     -1.751847
39
Coordinates from ORCA-job /home/rudenko/2025/kie/for_orca/c6h5chno2ch3_piperazine/orca/ts_opt/ts_opt E -859.672090520367
  C      -3.042857      2.292313     -0.442210
  C      -2.086450      1.291865     -0.577810
  C      -2.428640      0.066646     -1.144832
  C      -3.738293     -0.156396     -1.565320
  C      -4.693102      0.845104     -1.432949
  C      -4.346737      2.072466     -0.875150
  H      -2.768471      3.242164      0.000158
  H      -1.076787      1.448706     -0.215309
  H      -4.018223     -1.109051     -2.000497
  H      -5.090768      2.852606     -0.775681
  C      -1.366065     -1.002748     -1.229518
  C      -1.477493     -2.066175     -0.154551
  H      -0.656292     -2.781006     -0.216960
  H      -2.424631     -2.598515     -0.231334
  H      -1.448051     -1.577159      0.820464
  N      -1.404942     -1.632021     -2.628646
  O      -1.114775     -0.901701     -3.563407
  O      -1.710572     -2.804155     -2.748447
  N       2.338020      0.194143      0.606480
  C       2.601590     -1.203199      0.939997
  C       2.467408     -1.374094      2.443797
  N       3.420233     -0.488745      3.117193
  C       3.201136      0.914005      2.754665
  C       3.308945      1.077194      1.243266
  H       3.093538      2.110957      0.967055
  H       4.342122      0.849914      0.933009
  H       3.952924      1.528260      3.254568
  H       2.206422      1.269640      3.067044
  H       2.676565     -2.407419      2.726693
  H       1.420809     -1.143384      2.707179
  H       3.610539     -1.519425      0.626832
  H      -0.393836     -0.513385     -1.232403
  H       2.270869      0.335888     -0.391888
  H       1.878307     -1.828617      0.428323
  H       3.341298     -0.596171      4.121646
  H       1.447551      1.108966     -3.154238
  H       2.029305      2.128444     -2.173456
  O       1.387351      1.408345     -2.238813
  H      -5.707946      0.665740     -1.764949
39
Coordinates from ORCA-job /home/rudenko/2025/kie/for_orca/c6h5chno2ch3_piperazine/orca/ts_opt/ts_opt E -859.671934038134
  C      -3.060702      2.281918     -0.417182
  C      -2.105048      1.281475     -0.558966
  C      -2.444191      0.065189     -1.147575
  C      -3.750967     -0.149286     -1.581534
  C      -4.704973      0.852191     -1.443245
  C      -4.361047      2.071241     -0.864820
  H      -2.788295      3.224667      0.040116
  H      -1.098701      1.431120     -0.183906
  H      -4.029239     -1.094891     -2.031339
  H      -5.104088      2.851844     -0.761500
  C      -1.381896     -1.003682     -1.242819
  C      -1.491465     -2.079328     -0.179166
  H      -0.669302     -2.792701     -0.251764
  H      -2.438409     -2.611201     -0.260592
  H      -1.459629     -1.601075      0.800811
  N      -1.419281     -1.617456     -2.649183
  O      -1.140790     -0.872765     -3.576371
  O      -1.712353     -2.791541     -2.781544
  N       2.366584      0.187360      0.607287
  C       2.618301     -1.207575      0.959950
  C       2.475657     -1.358624      2.465500
  N       3.430884     -0.470473      3.132029
  C       3.217046      0.929133      2.753436
  C       3.334327      1.075458      1.241013
  H       3.123220      2.106277      0.951088
  H       4.369460      0.842909      0.941077
  H       3.967468      1.547163      3.250682
  H       2.221398      1.289913      3.056835
  H       2.677006     -2.389764      2.761639
  H       1.430332     -1.117456      2.722735
  H       3.626433     -1.536818      0.657595
  H      -0.408825     -0.516040     -1.240355
  H       2.303046      0.317727     -0.393326
  H       1.891556     -1.833597      0.451061
  H       3.348713     -0.566958      4.137390
  H       1.432735      1.088034     -3.153544
  H       2.056152      2.096579     -2.187282
  O       1.396187      1.391618     -2.238192
  H      -5.717305      0.679415     -1.786038
39
Coordinates from ORCA-job /home/rudenko/2025/kie/for_orca/c6h5chno2ch3_piperazine/orca/ts_opt/ts_opt E -859.671777060347
  C      -3.083562      2.274934     -0.401913
  C      -2.126712      1.276335     -0.549311
  C      -2.461516      0.066084     -1.151357
  C      -3.766579     -0.144844     -1.592485
  C      -4.721972      0.854492     -1.448494
  C      -4.381516      2.068318     -0.857757
  H      -2.813674      3.213397      0.066595
  H      -1.123106      1.423105     -0.168170
  H      -4.042255     -1.086146     -2.054023
  H      -5.125332      2.847738     -0.750657
  C      -1.398771     -1.001468     -1.256524
  C      -1.505761     -2.087332     -0.203846
  H      -0.683031     -2.799405     -0.288226
  H      -2.453731     -2.617266     -0.286292
  H      -1.469234     -1.619138      0.780828
  N      -1.436330     -1.601952     -2.668753
  O      -1.158434     -0.849341     -3.589001
  O      -1.727969     -2.774889     -2.811442
  N       2.396921      0.180612      0.611417
  C       2.637773     -1.211092      0.979867
  C       2.487131     -1.346879      2.486005
  N       3.444264     -0.456371      3.146973
  C       3.234370      0.940629      2.756480
  C       3.360648      1.073512      1.243638
  H       3.152401      2.101610      0.942392
  H       4.397925      0.837865      0.953310
  H       3.983082      1.561676      3.252473
  H       2.237642      1.304972      3.052103
  H       2.683281     -2.375926      2.792703
  H       1.442623     -1.098460      2.739794
  H       3.645524     -1.550940      0.688191
  H      -0.424580     -0.515749     -1.249335
  H       2.336301      0.301080     -0.390633
  H       1.910291     -1.836224      0.472014
  H       3.359903     -0.544768      4.152892
  H       1.428244      1.067175     -3.156352
  H       2.087350      2.064974     -2.203440
  O       1.410987      1.375390     -2.241981
  H      -5.732596      0.684292     -1.797685
39
Coordinates from ORCA-job /home/rudenko/2025/kie/for_orca/c6h5chno2ch3_piperazine/orca/ts_opt/ts_opt E -859.671619036479
  C      -3.103989      2.265718     -0.381323
  C      -2.146585      1.268609     -0.535478
  C      -2.477707      0.065989     -1.155038
  C      -3.780637     -0.139130     -1.605527
  C      -4.736516      0.858752     -1.455000
  C      -4.399180      2.065421     -0.847431
  H      -2.836478      3.198209      0.099465
  H      -1.144991      1.410453     -0.146811
  H      -4.054140     -1.074533     -2.079160
  H      -5.143172      2.844051     -0.735785
  C      -1.414657     -1.000271     -1.270604
  C      -1.519264     -2.097584     -0.229220
  H      -0.695881     -2.807951     -0.324907
  H      -2.467896     -2.625924     -0.313399
  H      -1.477986     -1.639715      0.759990
  N      -1.451501     -1.585427     -2.689408
  O      -1.180198     -0.820656     -3.601894
  O      -1.736778     -2.758571     -2.844315
  N       2.426155      0.173157      0.613716
  C       2.655329     -1.215479      1.000194
  C       2.496180     -1.332980      2.507145
  N       3.455171     -0.439504      3.161804
  C       3.250099      0.954235      2.756534
  C       3.385972      1.071551      1.243198
  H       3.180841      2.096548      0.929499
  H       4.425315      0.832444      0.962850
  H       3.997002      1.578926      3.250615
  H       2.252288      1.322861      3.043221
  H       2.685909     -2.359329      2.826655
  H       1.452600     -1.075971      2.755451
  H       3.662310     -1.567224      0.719837
  H      -0.439528     -0.516530     -1.257736
  H       2.369832      0.282414     -0.390265
  H       1.925760     -1.840930      0.493838
  H       3.367821     -0.517778      4.168365
  H       1.420207      1.045039     -3.155942
  H       2.118567      2.030421     -2.218441
  O       1.424849      1.357565     -2.242860
  H      -5.745124      0.693125     -1.811834
39
Coordinates from ORCA-job /home/rudenko/2025/kie/for_orca/c6h5chno2ch3_piperazine/orca/ts_opt/ts_opt E -859.671467174173
  C      -3.128561      2.259232     -0.368010
  C      -2.168872      1.265298     -0.528726
  C      -2.495222      0.067829     -1.159589
  C      -3.796952     -0.135815     -1.614574
  C      -4.755234      0.858747     -1.457813
  C      -4.421992      2.060805     -0.839247
  H      -2.863984      3.188019      0.122171
  H      -1.168772      1.405859     -0.137626
  H      -4.067424     -1.067534     -2.097838
  H      -5.167722      2.837145     -0.722989
  C      -1.431027     -0.996362     -1.284912
  C      -1.533030     -2.103445     -0.254599
  H      -0.709310     -2.812118     -0.362551
  H      -2.483256     -2.629050     -0.337651
  H      -1.485466     -1.655270      0.738629
  N      -1.468143     -1.567788     -2.709276
  O      -1.193932     -0.795973     -3.614334
  O      -1.756513     -2.738432     -2.875035
  N       2.456261      0.165640      0.618550
  C       2.674488     -1.219441      1.020451
  C       2.507662     -1.321998      2.527782
  N       3.468146     -0.425790      3.176903
  C       3.267140      0.965097      2.759684
  C       3.411961      1.069063      1.246230
  H       3.209137      2.091177      0.921781
  H       4.453336      0.827623      0.975183
  H       4.012269      1.592795      3.252573
  H       2.268337      1.337220      3.038465
  H       2.693067     -2.345746      2.858039
  H       1.465048     -1.058916      2.772925
  H       3.680978     -1.581170      0.751054
  H      -0.454692     -0.514763     -1.266526
  H       2.403760      0.264824     -0.386733
  H       1.944487     -1.844560      0.514113
  H       3.378589     -0.495886      4.183888
  H       1.420712      1.023205     -3.158678
  H       2.153499      1.995970     -2.235228
  O       1.443749      1.340229     -2.247457
  H      -5.762519      0.694281     -1.819026
39
Coordinates from ORCA-job /home/rudenko/2025/kie/for_orca/c6h5chno2ch3_piperazine/orca/ts_opt/ts_opt E -859.671311823938
  C      -3.150139      2.249786     -0.348259
  C      -2.188938      1.258587     -0.516561
  C      -2.511269      0.068427     -1.163579
  C      -3.811163     -0.130857     -1.626016
  C      -4.770795      0.861158     -1.461864
  C      -4.441227      2.056156     -0.827699
  H      -2.888443      3.172825      0.153482
  H      -1.189958      1.395399     -0.120519
  H      -4.078997     -1.056947     -2.120696
  H      -5.187947      2.830703     -0.706073
  C      -1.446080     -0.993551     -1.299526
  C      -1.545749     -2.112200     -0.280897
  H      -0.721369     -2.818581     -0.400325
  H      -2.496907     -2.635919     -0.364375
  H      -1.492417     -1.674160      0.716356
  N      -1.482503     -1.548685     -2.730281
  O      -1.212266     -0.765148     -3.626718
  O      -1.767570     -2.718425     -2.909121
  N       2.484628      0.157158      0.621207
  C       2.691037     -1.224407      1.041319
  C       2.515837     -1.308124      2.549223
  N       3.478050     -0.408670      3.191705
  C       3.282541      0.978485      2.758901
  C       3.436892      1.066079      1.245281
  H       3.237291      2.084835      0.908347
  H       4.480057      0.821073      0.984037
  H       4.026126      1.609779      3.249482
  H       2.282912      1.355367      3.028370
  H       2.695150     -2.328578      2.892782
  H       1.474271     -1.036965      2.788675
  H       3.696563     -1.597502      0.783765
  H      -0.468855     -0.513951     -1.274616
  H       2.437563      0.244745     -0.385703
  H       1.959529     -1.850255      0.535961
  H       3.385238     -0.467927      4.199137
  H       1.416397      1.000272     -3.157309
  H       2.187802      1.958361     -2.250326
  O       1.461013      1.321300     -2.248278
  H      -5.776302      0.700359     -1.829291
39
Coordinates from ORCA-job /home/rudenko/2025/kie/for_orca/c6h5chno2ch3_piperazine/orca/ts_opt/ts_opt E -859.671158576777
  C      -3.174147      2.242350     -0.334380
  C      -2.210331      1.255021     -0.510501
  C      -2.528465      0.070171     -1.168576
  C      -3.827378     -0.127912     -1.634461
  C      -4.789560      0.860348     -1.463060
  C      -4.463932      2.050223     -0.817488
  H      -2.915386      3.161421      0.176555
  H      -1.211992      1.390987     -0.113613
  H      -4.092265     -1.050062     -2.138435
  H      -5.212635      2.821985     -0.690161
  C      -1.461810     -0.989000     -1.314590
  C      -1.558874     -2.117854     -0.307636
  H      -0.733976     -2.821736     -0.439056
  H      -2.511472     -2.639098     -0.389790
  H      -1.498723     -1.689425      0.693386
  N      -1.498270     -1.529212     -2.750854
  O      -1.224519     -0.738097     -3.639036
  O      -1.787403     -2.695897     -2.941554
  N       2.513251      0.149009      0.626478
  C       2.708649     -1.228520      1.062277
  C       2.525875     -1.296252      2.570346
  N       3.489741     -0.393874      3.206733
  C       3.299411      0.989875      2.760759
  C       3.462405      1.062800      1.247303
  H       3.265656      2.078394      0.899262
  H       4.507125      0.814706      0.995024
  H       4.041788      1.624046      3.249407
  H       2.299213      1.371110      3.021961
  H       2.700750     -2.313543      2.925372
  H       1.485234     -1.019069      2.805988
  H       3.713481     -1.611002      0.815992
  H      -0.483936     -0.511284     -1.283183
  H       2.471064      0.225842     -0.381792
  H       1.976955     -1.854854      0.556739
  H       3.394275     -0.443854      4.214413
  H       1.418408      0.977696     -3.158016
  H       2.224109      1.920983     -2.266206
  O       1.481690      1.302824     -2.251576
  H      -5.794005      0.700757     -1.834029
39
Coordinates from ORCA-job /home/rudenko/2025/kie/for_orca/c6h5chno2ch3_piperazine/orca/ts_opt/ts_opt E -859.671011503294
  C      -3.195522      2.232197     -0.314977
  C      -2.229727      1.248430     -0.499725
  C      -2.544240      0.070831     -1.172779
  C      -3.841652     -0.123545     -1.644493
  C      -4.805548      0.861512     -1.464768
  C      -4.483507      2.044106     -0.804356
  H      -2.939674      3.145504      0.207077
  H      -1.231990      1.381434     -0.099638
  H      -4.103883     -1.040051     -2.159513
  H      -5.233577      2.813429     -0.670661
  C      -1.476150     -0.985346     -1.329828
  C      -1.570904     -2.126075     -0.335195
  H      -0.745729     -2.827009     -0.477847
  H      -2.524261     -2.645696     -0.417758
  H      -1.504480     -1.707558      0.669565
  N      -1.511705     -1.508246     -2.772325
  O      -1.240283     -0.705536     -3.651007
  O      -1.799250     -2.673149     -2.976971
  N       2.539930      0.139948      0.629679
  C       2.723713     -1.233455      1.083761
  C       2.532501     -1.281700      2.591880
  N       3.498229     -0.376070      3.221292
  C       3.314765      1.003395      2.758728
  C       3.486957      1.058785      1.245458
  H       3.294211      2.070749      0.884634
  H       4.532913      0.806133      1.002597
  H       4.056284      1.640811      3.244414
  H       2.314231      1.390355      3.010240
  H       2.701191     -2.295165      2.960604
  H       1.492724     -0.996597      2.821121
  H       3.727507     -1.626326      0.849589
  H      -0.497713     -0.509151     -1.291088
  H       2.504283      0.204691     -0.379822
  H       1.991396     -1.860983      0.579216
  H       3.398926     -0.414225      4.229159
  H       1.417022      0.954397     -3.154520
  H       2.260064      1.880888     -2.279973
  O       1.501495      1.283054     -2.251073
  H      -5.808547      0.705234     -1.840698
39
Coordinates from ORCA-job /home/rudenko/2025/kie/for_orca/c6h5chno2ch3_piperazine/orca/ts_opt/ts_opt E -859.670874101479
  C      -3.218623      2.223948     -0.301165
  C      -2.250079      1.244584     -0.494909
  C      -2.561325      0.072258     -1.178249
  C      -3.858154     -0.121175     -1.651972
  C      -4.824597      0.859794     -1.463956
  C      -4.505959      2.036970     -0.792369
  H      -2.965384      3.133186      0.229544
  H      -1.252330      1.377330     -0.095251
  H      -4.117788     -1.033644     -2.175678
  H      -5.258092      2.803110     -0.651874
  C      -1.491535     -0.980472     -1.345635
  C      -1.583725     -2.131726     -0.363284
  H      -0.758411     -2.829894     -0.517550
  H      -2.538232     -2.649238     -0.445092
  H      -1.510264     -1.722613      0.644849
  N      -1.526733     -1.487509     -2.793507
  O      -1.251021     -0.676929     -3.663201
  O      -1.819192     -2.648769     -3.010797
  N       2.566417      0.131529      0.635299
  C       2.739633     -1.237380      1.105267
  C       2.541207     -1.268849      2.613242
  N       3.508763     -0.360270      3.236061
  C       3.331652      1.015209      2.759272
  C       3.511814      1.054672      1.246452
  H       3.322753      2.063192      0.874174
  H       4.558710      0.797775      1.012090
  H       4.072710      1.655183      3.242223
  H       2.331083      1.407447      3.002301
  H       2.705331     -2.278692      2.993756
  H       1.502484     -0.977758      2.838123
  H       3.742703     -1.638615      0.882370
  H      -0.513138     -0.505669     -1.299598
  H       2.537024      0.185059     -0.375025
  H       2.007512     -1.866194      0.600653
  H       3.406339     -0.388100      4.243932
  H       1.422370      0.931881     -3.152610
  H       2.298132      1.841696     -2.293420
  O       1.524899      1.264032     -2.252320
  H      -5.826955      0.704640     -1.842147
39
Coordinates from ORCA-job /home/rudenko/2025/kie/for_orca/c6h5chno2ch3_piperazine/orca/ts_opt/ts_opt E -859.670745544189
  C      -3.240524      2.214141     -0.284420
  C      -2.269409      1.239288     -0.487695
  C      -2.577631      0.073205     -1.183164
  C      -3.873701     -0.118283     -1.659669
  C      -4.842429      0.858598     -1.462545
  C      -4.527056      2.029282     -0.778458
  H      -2.989944      3.118365      0.255650
  H      -1.271597      1.370791     -0.087363
  H      -4.130825     -1.025863     -2.192692
  H      -5.281063      2.792172     -0.630662
  C      -1.505804     -0.975598     -1.361629
  C      -1.595517     -2.138434     -0.391966
  H      -0.769917     -2.833597     -0.557273
  H      -2.550687     -2.654467     -0.474250
  H      -1.515502     -1.738988      0.619513
  N      -1.539874     -1.465090     -2.815324
  O      -1.263178     -0.644059     -3.675060
  O      -1.834056     -2.623323     -3.046762
  N       2.591389      0.122471      0.639707
  C       2.753699     -1.241825      1.127205
  C       2.547379     -1.254289      2.634695
  N       3.516960     -0.342727      3.250489
  C       3.347625      1.028082      2.757226
  C       3.536191      1.049693      1.245011
  H       3.351976      2.054462      0.860166
  H       4.583696      0.787175      1.019452
  H       4.088563      1.670683      3.236803
  H       2.347251      1.426670      2.990688
  H       2.705665     -2.260044      3.028379
  H       1.509420     -0.955913      2.853343
  H       3.755830     -1.651891      0.916098
  H      -0.527392     -0.501717     -1.307855
  H       2.569545      0.163850     -0.371559
  H       2.021781     -1.872318      0.623480
  H       3.410480     -0.358499      4.258228
  H       1.426941      0.908604     -3.147924
  H       2.336876      1.800152     -2.305424
  O       1.548861      1.243851     -2.251187
  H      -5.844025      0.705391     -1.843251
39
Coordinates from ORCA-job /home/rudenko/2025/kie/for_orca/c6h5chno2ch3_piperazine/orca/ts_opt/ts_opt E -859.670624726979
  C      -3.263914      2.206129     -0.272239
  C      -2.289577      1.236571     -0.485385
  C      -2.594983      0.074901     -1.189142
  C      -3.891114     -0.117220     -1.665219
  C      -4.862884      0.854728     -1.458956
  C      -4.550640      2.020667     -0.765380
  H      -3.015716      3.106861      0.274970
  H      -1.291144      1.369150     -0.087448
  H      -4.145774     -1.021389     -2.205337
  H      -5.307139      2.779591     -0.609922
  C      -1.520772     -0.969542     -1.377977
  C      -1.607811     -2.142749     -0.421019
  H      -0.781640     -2.834941     -0.597618
  H      -2.563891     -2.656997     -0.502885
  H      -1.520943     -1.752687      0.593515
  N      -1.553862     -1.442608     -2.836840
  O      -1.270336     -0.614191     -3.686919
  O      -1.855332     -2.596139     -3.081542
  N       2.615972      0.114004      0.645966
  C       2.768300     -1.245397      1.149056
  C       2.555182     -1.241097      2.655905
  N       3.526784     -0.326900      3.265069
  C       3.364822      1.039446      2.757283
  C       3.560719      1.044534      1.245909
  H       3.381257      2.045702      0.849605
  H       4.608525      0.776490      1.028405
  H       4.105987      1.684083      3.233700
  H       2.364924      1.444043      2.982168
  H       2.708866     -2.242967      3.061162
  H       1.518112     -0.936928      2.870005
  H       3.769743     -1.662646      0.948850
  H      -0.542761     -0.496463     -1.316366
  H       2.601408      0.143787     -0.365937
  H       2.037041     -1.877736      0.645553
  H       3.416835     -0.331857      4.272522
  H       1.437035      0.885563     -3.144770
  H       2.377365      1.758894     -2.317290
  O       1.575793      1.223914     -2.251666
  H      -5.864438      0.701396     -1.839789
39
Coordinates from ORCA-job /home/rudenko/2025/kie/for_orca/c6h5chno2ch3_piperazine/orca/ts_opt/ts_opt E -859.670513225842
  C      -3.286755      2.197124     -0.258265
  C      -2.309127      1.233183     -0.481435
  C      -2.611700      0.076417     -1.194568
  C      -3.907792     -0.116087     -1.670493
  C      -4.882618      0.850644     -1.454562
  C      -4.573567      2.011307     -0.751072
  H      -3.041128      3.093853      0.296359
  H      -1.310003      1.366501     -0.085137
  H      -4.159886     -1.016403     -2.217973
  H      -5.332586      2.766004     -0.587731
  C      -1.534727     -0.963117     -1.394269
  C      -1.619187     -2.147511     -0.450501
  H      -0.792310     -2.836220     -0.637898
  H      -2.575741     -2.660574     -0.532980
  H      -1.526086     -1.767123      0.567085
  N      -1.566063     -1.418322     -2.858604
  O      -1.277358     -0.580795     -3.698069
  O      -1.873014     -2.567301     -3.117858
  N       2.639350      0.105047      0.651336
  C       2.781317     -1.249284      1.171107
  C       2.560932     -1.226630      2.676946
  N       3.534752     -0.309958      3.279350
  C       3.381467      1.051363      2.755327
  C       3.585064      1.038464      1.244992
  H       3.411553      2.035797      0.836387
  H       4.632835      0.763581      1.035809
  H       4.123175      1.697995      3.228127
  H       2.382281      1.462890      2.970731
  H       2.708838     -2.224279      3.094711
  H       1.524564     -0.915579      2.884986
  H       3.781834     -1.674101      0.982041
  H      -0.557129     -0.490506     -1.324337
  H       2.633074      0.122392     -0.361119
  H       2.050515     -1.883754      0.668706
  H       3.420538     -0.302802      4.286339
  H       1.446822      0.861873     -3.139512
  H       2.418534      1.715547     -2.328100
  O       1.603400      1.202978     -2.250372
  H      -5.884067      0.697388     -1.835483
39
Coordinates from ORCA-job /home/rudenko/2025/kie/for_orca/c6h5chno2ch3_piperazine/orca/ts_opt/ts_opt E -859.670409147242
  C      -3.310592      2.189527     -0.247484
  C      -2.329175      1.231878     -0.480943
  C      -2.628954      0.078554     -1.200589
  C      -3.925574     -0.116441     -1.674021
  C      -4.904066      0.844355     -1.448438
  C      -4.598186      2.001131     -0.737179
  H      -3.067373      3.083449      0.312845
  H      -1.329003      1.367706     -0.088584
  H      -4.175062     -1.014074     -2.227141
  H      -5.360212      2.750994     -0.565711
  C      -1.548869     -0.955652     -1.410553
  C      -1.630705     -2.150462     -0.480199
  H      -0.802792     -2.835505     -0.678511
  H      -2.587792     -2.662300     -0.562919
  H      -1.531486     -1.779655      0.540317
  N      -1.578149     -1.393566     -2.879923
  O      -1.279490     -0.549152     -3.708691
  O      -1.894766     -2.536553     -3.153407
  N       2.662167      0.096526      0.657849
  C       2.794413     -1.252503      1.192980
  C       2.567506     -1.213027      2.697648
  N       3.543623     -0.294273      3.293649
  C       3.398916      1.062100      2.754715
  C       3.609421      1.032078      1.245620
  H       3.442045      2.025660      0.825504
  H       4.656848      0.750222      1.044257
  H       4.141476      1.710239      3.224047
  H       2.400719      1.480422      2.961279
  H       2.710242     -2.206608      3.126833
  H       1.531895     -0.895966      2.900630
  H       3.794116     -1.683803      1.014298
  H      -0.571992     -0.483389     -1.332051
  H       2.663935      0.101644     -0.354906
  H       2.064217     -1.889215      0.691559
  H       3.425484     -0.275827      4.300021
  H       1.460005      0.838098     -3.135554
  H       2.460408      1.671956     -2.339122
  O       1.632727      1.181954     -2.250451
  H      -5.905924      0.689479     -1.827676
39
Coordinates from ORCA-job /home/rudenko/2025/kie/for_orca/c6h5chno2ch3_piperazine/orca/ts_opt/ts_opt E -859.670316151307
  C      -3.334088      2.181157     -0.235198
  C      -2.348699      1.230218     -0.478988
  C      -2.645459      0.080679     -1.206042
  C      -3.942461     -0.116818     -1.677269
  C      -4.924756      0.837629     -1.441636
  C      -4.622296      1.990161     -0.722315
  H      -3.093589      3.071916      0.331125
  H      -1.347489      1.368422     -0.089854
  H      -4.189086     -1.011462     -2.236320
  H      -5.387456      2.734846     -0.542596
  C      -1.561906     -0.947663     -1.426532
  C      -1.641309     -2.153631     -0.510163
  H      -0.812188     -2.834431     -0.718817
  H      -2.598496     -2.664839     -0.594259
  H      -1.536811     -1.792712      0.513283
  N      -1.588139     -1.366913     -2.901157
  O      -1.280071     -0.514440     -3.718144
  O      -1.913345     -2.503683     -3.190180
  N       2.683904      0.087514      0.663503
  C       2.805980     -1.256007      1.214949
  C       2.572231     -1.198266      2.718091
  N       3.550861     -0.277713      3.307664
  C       3.415984      1.073149      2.752345
  C       3.633660      1.024681      1.244726
  H       3.473596      2.014268      0.812400
  H       4.680404      0.734655      1.051504
  H       4.159730      1.722698      3.217809
  H       2.419049      1.499130      2.949254
  H       2.708571     -2.187462      3.159452
  H       1.537401     -0.874087      2.914582
  H       3.804546     -1.694315      1.046816
  H      -0.585847     -0.475574     -1.338908
  H       2.694402      0.079590     -0.349399
  H       2.075932     -1.895106      0.715440
  H       3.428110     -0.246844      4.313205
  H       1.472102      0.813738     -3.130066
  H       2.501995      1.626406     -2.349739
  O       1.661961      1.159999     -2.249358
  H      -5.926923      0.681108     -1.819207
39
Coordinates from ORCA-job /home/rudenko/2025/kie/for_orca/c6h5chno2ch3_piperazine/orca/ts_opt/ts_opt E -859.670230092259
  C      -3.358476      2.174433     -0.226176
  C      -2.368636      1.230905     -0.480548
  C      -2.662309      0.083522     -1.211985
  C      -3.960252     -0.118795     -1.678550
  C      -4.946968      0.828553     -1.432937
  C      -4.647952      1.978407     -0.707839
  H      -3.120539      3.063363      0.344197
  H      -1.366058      1.373378     -0.097108
  H      -4.203967     -1.011766     -2.241546
  H      -5.416732      2.717272     -0.519671
  C      -1.574880     -0.938551     -1.442255
  C      -1.651778     -2.154951     -0.540099
  H      -0.820996     -2.831315     -0.759195
  H      -2.609114     -2.665497     -0.625266
  H      -1.542250     -1.803864      0.486306
  N      -1.597494     -1.339776     -2.921705
  O      -1.274842     -0.481609     -3.726782
  O      -1.935774     -2.468712     -3.226003
  N       2.705262      0.078928      0.670218
  C       2.817639     -1.258925      1.236645
  C       2.577458     -1.184540      2.737992
  N       3.558625     -0.262584      3.321683
  C       3.433649      1.082883      2.751344
  C       3.657984      1.016921      1.245422
  H       3.505501      2.002637      0.801715
  H       4.703763      0.718619      1.059956
  H       4.178820      1.733311      3.213264
  H       2.438235      1.516431      2.939070
  H       2.707888     -2.169521      3.190523
  H       1.543171     -0.854128      2.928693
  H       3.815157     -1.703329      1.078314
  H      -0.599966     -0.466561     -1.345180
  H       2.723968      0.058228     -0.342603
  H       2.087836     -1.900372      0.739199
  H       3.431459     -0.220155      4.326240
  H       1.486735      0.789561     -3.126677
  H       2.543551      1.580886     -2.361343
  O       1.692221      1.138197     -2.250388
  H      -5.949942      0.668516     -1.806930
39
Coordinates from ORCA-job /home/rudenko/2025/kie/for_orca/c6h5chno2ch3_piperazine/orca/ts_opt/ts_opt E -859.670152384263
  C      -3.382126      2.166985     -0.215366
  C      -2.387658      1.231343     -0.480423
  C      -2.677956      0.086420     -1.217133
  C      -3.976702     -0.120803     -1.679317
  C      -4.967961      0.818999     -1.423330
  C      -4.672672      1.965839     -0.692132
  H      -3.147068      3.053765      0.359392
  H      -1.383686      1.378111     -0.102187
  H      -4.217274     -1.011812     -2.246615
  H      -5.445193      2.698500     -0.495404
  C      -1.586276     -0.928861     -1.457283
  C      -1.660888     -2.156360     -0.570193
  H      -0.827810     -2.827470     -0.799164
  H      -2.617926     -2.666860     -0.657518
  H      -1.547473     -1.815565      0.459147
  N      -1.603793     -1.310652     -2.941718
  O      -1.265961     -0.446160     -3.733549
  O      -1.954640     -2.431167     -3.262741
  N       2.725787      0.069730      0.675929
  C       2.827548     -1.262072      1.258180
  C       2.580237     -1.169595      2.757164
  N       3.564004     -0.246567      3.335327
  C       3.450520      1.092826      2.748489
  C       3.682239      1.008034      1.244624
  H       3.538602      1.989585      0.788854
  H       4.726737      0.700379      1.067502
  H       4.197306      1.743994      3.206742
  H       2.456904      1.534814      2.925816
  H       2.703318     -2.149961      3.221716
  H       1.546312     -0.831917      2.940100
  H       3.823563     -1.713391      1.109869
  H      -0.612571     -0.456928     -1.349920
  H       2.752951      0.035281     -0.336689
  H       2.097231     -1.905903      0.763910
  H       3.431444     -0.191426      4.338590
  H       1.498252      0.764882     -3.122300
  H       2.583345      1.533143     -2.373642
  O       1.720953      1.115451     -2.250899
  H      -5.971620      0.655387     -1.793828
39
Coordinates from ORCA-job /home/rudenko/2025/kie/for_orca/c6h5chno2ch3_piperazine/orca/ts_opt/ts_opt E -859.670079954696
  C      -3.404082      2.159341     -0.203849
  C      -2.404969      1.232068     -0.480462
  C      -2.692021      0.089458     -1.221821
  C      -3.991724     -0.123311     -1.678821
  C      -4.987612      0.808517     -1.411869
  C      -4.695941      1.952408     -0.674570
  H      -3.171735      3.044105      0.375095
  H      -1.399396      1.383617     -0.108639
  H      -4.229228     -1.012474     -2.250204
  H      -5.472294      2.678459     -0.468643
  C      -1.595734     -0.918381     -1.471626
  C      -1.667968     -2.157066     -0.600650
  H      -0.831847     -2.822159     -0.838684
  H      -2.624407     -2.667979     -0.690735
  H      -1.552048     -1.827102      0.431550
  N      -1.606515     -1.279692     -2.960994
  O      -1.250791     -0.409383     -3.738236
  O      -1.971124     -2.390619     -3.299966
  N       2.745408      0.060051      0.681125
  C       2.835690     -1.264968      1.279396
  C       2.580454     -1.153855      2.775289
  N       3.566719     -0.230121      3.348602
  C       3.466173      1.102629      2.744697
  C       3.706001      0.998162      1.243367
  H       3.572190      1.975236      0.775227
  H       4.748947      0.680565      1.075237
  H       4.214685      1.754249      3.199533
  H       2.474663      1.553658      2.910539
  H       2.695115     -2.129250      3.252326
  H       1.546492     -0.808436      2.948638
  H       3.829878     -1.723468      1.141041
  H      -0.623814     -0.446614     -1.352918
  H       2.780535      0.010813     -0.331310
  H       2.104331     -1.911131      0.789083
  H       3.427842     -0.161653      4.350180
  H       1.504776      0.739319     -3.118145
  H       2.619173      1.482608     -2.388197
  O       1.746323      1.091492     -2.252327
  H      -5.992146      0.640908     -1.778260
39
Coordinates from ORCA-job /home/rudenko/2025/kie/for_orca/c6h5chno2ch3_piperazine/orca/ts_opt/ts_opt E -859.670017482740
  C      -3.423236      2.150698     -0.189624
  C      -2.419371      1.232454     -0.478576
  C      -2.702960      0.092662     -1.225511
  C      -4.003552     -0.125712     -1.677377
  C      -5.004123      0.797648     -1.398759
  C      -4.716268      1.937997     -0.654637
  H      -3.193812      3.032912      0.394230
  H      -1.412304      1.388667     -0.112954
  H      -4.237902     -1.012629     -2.253403
  H      -5.496549      2.656926     -0.438966
  C      -1.601809     -0.907311     -1.484944
  C      -1.672101     -2.157291     -0.631402
  H      -0.832393     -2.816170     -0.876453
  H      -2.627684     -2.668956     -0.725056
  H      -1.555332     -1.839034      0.403182
  N      -1.604187     -1.248036     -2.978917
  O      -1.230526     -0.371978     -3.741016
  O      -1.981513     -2.349116     -3.336159
  N       2.764040      0.048241      0.683879
  C       2.840765     -1.268730      1.299867
  C       2.575938     -1.136176      2.791680
  N       3.564511     -0.212235      3.360888
  C       3.479601      1.112411      2.737620
  C       3.729207      0.985709      1.239708
  H       3.606929      1.957683      0.758010
  H       4.770301      0.656986      1.082127
  H       4.229887      1.764390      3.189096
  H       2.490614      1.573755      2.889493
  H       2.679681     -2.105666      3.283040
  H       1.541833     -0.780926      2.951551
  H       3.832485     -1.735641      1.172104
  H      -0.631408     -0.435447     -1.354475
  H       2.807344     -0.016244     -0.327597
  H       2.107473     -1.917242      0.814978
  H       3.417466     -0.128364      4.360135
  H       1.502427      0.717376     -3.110740
  H       2.649425      1.431081     -2.402612
  O       1.766567      1.069226     -2.251340
  H      -6.009464      0.626082     -1.761069
39
Coordinates from ORCA-job /home/rudenko/2025/kie/for_orca/c6h5chno2ch3_piperazine/orca/ts_opt/ts_opt E -859.669943106193
  C      -3.443302      2.143629     -0.177315
  C      -2.433137      1.236367     -0.478365
  C      -2.711079      0.097740     -1.228624
  C      -4.012457     -0.129553     -1.674147
  C      -5.019349      0.783510     -1.384615
  C      -4.737274      1.921738     -0.635197
  H      -3.218158      3.024387      0.410361
  H      -1.425331      1.399663     -0.120122
  H      -4.242301     -1.015572     -2.253230
  H      -5.522820      2.631923     -0.409963
  C      -1.604485     -0.894265     -1.496512
  C      -1.673966     -2.154582     -0.660655
  H      -0.831409     -2.808176     -0.910634
  H      -2.629284     -2.666041     -0.757171
  H      -1.556421     -1.848964      0.374746
  N      -1.598087     -1.217011     -2.994193
  O      -1.202602     -0.338497     -3.742520
  O      -1.991910     -2.306969     -3.367696
  N       2.783104      0.033278      0.684950
  C       2.844056     -1.274469      1.319800
  C       2.568471     -1.118411      2.806513
  N       3.559336     -0.195096      3.372470
  C       3.492929      1.120338      2.728779
  C       3.753461      0.969107      1.235220
  H       3.644676      1.935459      0.739129
  H       4.792250      0.627842      1.089713
  H       4.245500      1.772081      3.176978
  H       2.507236      1.593656      2.864773
  H       2.659163     -2.081399      3.312975
  H       1.534669     -0.751889      2.950786
  H       3.832798     -1.750678      1.203250
  H      -0.634560     -0.422528     -1.354749
  H       2.834734     -0.045141     -0.325953
  H       2.108380     -1.925205      0.840680
  H       3.402772     -0.094684      4.368743
  H       1.491584      0.706113     -3.100996
  H       2.675518      1.383038     -2.416630
  O       1.782617      1.054010     -2.248631
  H      -6.025323      0.605251     -1.741949
39
Coordinates from ORCA-job /home/rudenko/2025/kie/for_orca/c6h5chno2ch3_piperazine/orca/ts_opt/ts_opt E -859.669844426876
  C      -3.466685      2.139001     -0.168458
  C      -2.447663      1.245485     -0.480170
  C      -2.716791      0.105189     -1.231594
  C      -4.018705     -0.135439     -1.669623
  C      -5.034225      0.764832     -1.370578
  C      -4.760959      1.903097     -0.618235
  H      -3.248205      3.019914      0.421366
  H      -1.439794      1.420224     -0.129538
  H      -4.242057     -1.022514     -2.249430
  H      -5.553712      2.602334     -0.384315
  C      -1.604303     -0.879327     -1.506659
  C      -1.675335     -2.148833     -0.687591
  H      -0.831481     -2.799090     -0.940695
  H      -2.631480     -2.658193     -0.786250
  H      -1.555397     -1.855703      0.347911
  N      -1.589302     -1.186179     -3.007412
  O      -1.166990     -0.308835     -3.743057
  O      -2.005004     -2.262806     -3.395746
  N       2.803653      0.015292      0.684550
  C       2.846587     -1.282431      1.339063
  C       2.559658     -1.100711      2.820184
  N       3.553321     -0.179329      3.383546
  C       3.508024      1.126100      2.719036
  C       3.779904      0.948172      1.230752
  H       3.686886      1.908224      0.719408
  H       4.815768      0.592731      1.099142
  H       4.263821      1.776666      3.163783
  H       2.526785      1.613209      2.837922
  H       2.634919     -2.056975      3.341622
  H       1.527467     -0.721183      2.948414
  H       3.831895     -1.768534      1.234412
  H      -0.634152     -0.408720     -1.354590
  H       2.863799     -0.075910     -0.325497
  H       2.107713     -1.936019      0.865903
  H       3.386584     -0.061888      4.376286
  H       1.473538      0.705791     -3.089060
  H       2.697154      1.340418     -2.428282
  O       1.795157      1.045907     -2.244595
  H      -6.040394      0.576033     -1.721928
39
Coordinates from ORCA-job /home/rudenko/2025/kie/for_orca/c6h5chno2ch3_piperazine/orca/ts_opt/ts_opt E -859.669731662033
  C      -3.492942      2.134983     -0.161733
  C      -2.463222      1.257209     -0.482450
  C      -2.720681      0.113961     -1.233967
  C      -4.022164     -0.142294     -1.665774
  C      -5.048004      0.743525     -1.359349
  C      -4.786395      1.882546     -0.604461
  H      -3.283366      3.016426      0.430301
  H      -1.456364      1.445802     -0.137949
  H      -4.236992     -1.031234     -2.245666
  H      -5.587704      2.569302     -0.362939
  C      -1.602051     -0.863340     -1.514701
  C      -1.676991     -2.142049     -0.711882
  H      -0.832548     -2.790786     -0.966990
  H      -2.634404     -2.648266     -0.813769
  H      -1.553098     -1.860899      0.324589
  N      -1.578285     -1.154179     -3.018273
  O      -1.126833     -0.279531     -3.740773
  O      -2.017764     -2.215691     -3.421835
  N       2.824161     -0.004713      0.683219
  C       2.847550     -1.291679      1.358573
  C       2.549816     -1.082295      2.833736
  N       3.548152     -0.164588      3.393771
  C       3.526050      1.130152      2.707692
  C       3.808088      0.923482      1.225094
  H       3.733256      1.876269      0.697399
  H       4.839968      0.551574      1.108476
  H       4.286764      1.778272      3.147836
  H       2.550778      1.632885      2.809518
  H       2.607078     -2.031816      3.369484
  H       1.521114     -0.687619      2.946430
  H       3.828943     -1.787947      1.266546
  H      -0.631629     -0.394967     -1.352613
  H       2.892830     -0.108248     -0.326348
  H       2.105248     -1.948238      0.892439
  H       3.371962     -0.029547      4.382624
  H       1.448929      0.714201     -3.074566
  H       2.711732      1.304103     -2.437214
  O       1.802479      1.043075     -2.238605
  H      -6.053465      0.542156     -1.705869
39
Coordinates from ORCA-job /home/rudenko/2025/kie/for_orca/c6h5chno2ch3_piperazine/orca/ts_opt/ts_opt E -859.669745062356
  C      -3.515413      2.128443     -0.152666
  C      -2.476077      1.265114     -0.481136
  C      -2.722863      0.121161     -1.235178
  C      -4.023060     -0.147765     -1.664582
  C      -5.058102      0.724779     -1.351772
  C      -4.807475      1.862717     -0.591886
  H      -3.314280      3.009037      0.443195
  H      -1.470238      1.465988     -0.140226
  H      -4.229586     -1.037048     -2.246699
  H      -5.616310      2.538105     -0.343772
  C      -1.598496     -0.848223     -1.520584
  C      -1.676794     -2.138330     -0.734459
  H      -0.832704     -2.784585     -0.992253
  H      -2.634290     -2.642677     -0.843162
  H      -1.549786     -1.869392      0.305954
  N      -1.563738     -1.119194     -3.027461
  O      -1.085142     -0.244806     -3.732997
  O      -2.021880     -2.165100     -3.450292
  N       2.840922     -0.024962      0.681291
  C       2.846024     -1.301099      1.379010
  C       2.538364     -1.062310      2.847215
  N       3.542899     -0.148376      3.401862
  C       3.543722      1.134268      2.693078
  C       3.833789      0.898315      1.216283
  H       3.777090      1.842874      0.672051
  H       4.860950      0.509633      1.113965
  H       4.310099      1.779764      3.127310
  H       2.574963      1.652091      2.778598
  H       2.577010     -2.004253      3.397557
  H       1.514066     -0.652228      2.943417
  H       3.823429     -1.807107      1.300867
  H      -0.629831     -0.382250     -1.347830
  H       2.917297     -0.141617     -0.326990
  H       2.101694     -1.960624      0.921798
  H       3.358735      0.005681      4.386446
  H       1.412461      0.723270     -3.054403
  H       2.714554      1.267227     -2.446245
  O       1.800278      1.040143     -2.229014
  H      -6.062282      0.513336     -1.696289
39
Coordinates from ORCA-job /home/rudenko/2025/kie/for_orca/c6h5chno2ch3_piperazine/orca/ts_opt/ts_opt E -859.670113902059
  C      -3.495794      2.128336     -0.152849
  C      -2.461714      1.257198     -0.477947
  C      -2.716535      0.115183     -1.232761
  C      -4.017339     -0.145047     -1.664923
  C      -5.046752      0.734725     -1.354060
  C      -4.789061      1.871498     -0.594356
  H      -3.289445      3.008295      0.442277
  H      -1.453792      1.453719     -0.134260
  H      -4.228944     -1.032748     -2.247772
  H      -5.593376      2.553127     -0.348559
  C      -1.595744     -0.856187     -1.516711
  C      -1.673891     -2.148990     -0.726207
  H      -0.836123     -2.795009     -0.987210
  H      -2.628528     -2.656831     -0.843703
  H      -1.549783     -1.876362      0.321563
  N      -1.562128     -1.126344     -3.024041
  O      -1.091685     -0.247459     -3.729351
  O      -2.011479     -2.175712     -3.447212
  N       2.825872     -0.018492      0.679291
  C       2.841778     -1.301231      1.374344
  C       2.537563     -1.067822      2.846372
  N       3.540872     -0.150305      3.397878
  C       3.532893      1.134760      2.692296
  C       3.817097      0.906804      1.212877
  H       3.753846      1.853157      0.672685
  H       4.845456      0.523052      1.104782
  H       4.298592      1.781722      3.125304
  H       2.562156      1.647445      2.784449
  H       2.582241     -2.010772      3.394443
  H       1.515134     -0.663122      2.945773
  H       3.821324     -1.802660      1.295238
  H      -0.631032     -0.388472     -1.345702
  H       2.899814     -0.130332     -0.326417
  H       2.102225     -1.961293      0.917846
  H       3.360802      0.001016      4.383633
  H       1.406752      0.725240     -3.059292
  H       2.695219      1.284032     -2.446464
  O       1.785286      1.045634     -2.230856
  H      -6.051777      0.530246     -1.700396
39
Coordinates from ORCA-job /home/rudenko/2025/kie/for_orca/c6h5chno2ch3_piperazine/orca/ts_opt/ts_opt E -859.669900857344
  C      -3.495515      2.102048     -0.106749
  C      -2.458730      1.236147     -0.436017
  C      -2.704665      0.113931     -1.224214
  C      -3.998956     -0.130139     -1.684382
  C      -5.030250      0.746096     -1.369610
  C      -4.781634      1.862237     -0.578055
  H      -3.297281      2.964629      0.514796
  H      -1.456170      1.417457     -0.068148
  H      -4.204013     -1.002107     -2.292299
  H      -5.587657      2.540673     -0.329557
  C      -1.582841     -0.854710     -1.515643
  C      -1.664547     -2.156697     -0.732425
  H      -0.822437     -2.799014     -0.984057
  H      -2.616120     -2.667589     -0.861319
  H      -1.544506     -1.888529      0.316226
  N      -1.543759     -1.107311     -3.025665
  O      -1.104911     -0.204986     -3.721476
  O      -1.958027     -2.166199     -3.460712
  N       2.829260     -0.032642      0.662711
  C       2.827765     -1.304178      1.381339
  C       2.511145     -1.039377      2.843394
  N       3.519668     -0.127777      3.393740
  C       3.533763      1.145194      2.664225
  C       3.827333      0.889937      1.189310
  H       3.779688      1.828361      0.633957
  H       4.852022      0.493143      1.094712
  H       4.303385      1.791160      3.092157
  H       2.568180      1.670137      2.739106
  H       2.529756     -1.974624      3.405586
  H       1.492592     -0.614833      2.915493
  H       3.800900     -1.818854      1.314784
  H      -0.616608     -0.388532     -1.338896
  H       2.911233     -0.160029     -0.344930
  H       2.082815     -1.963449      0.935719
  H       3.329764      0.042447      4.374554
  H       1.354269      0.720674     -3.016144
  H       2.677268      1.250368     -2.442070
  O       1.767622      1.031914     -2.201001
  H      -6.029804      0.555022     -1.738440
39
Coordinates from ORCA-job /home/rudenko/2025/kie/for_orca/c6h5chno2ch3_piperazine/orca/ts_opt/ts_opt E -859.669687605045
  C      -3.483008      2.070947     -0.055381
  C      -2.447998      1.206553     -0.394058
  C      -2.689753      0.109210     -1.217790
  C      -3.977841     -0.110430     -1.706746
  C      -5.007044      0.765978     -1.384180
  C      -4.762809      1.856533     -0.555311
  H      -3.288627      2.912610      0.595802
  H      -1.450583      1.366473     -0.004542
  H      -4.179999     -0.963084     -2.342924
  H      -5.567328      2.534568     -0.300086
  C      -1.570117     -0.859455     -1.516008
  C      -1.655481     -2.167279     -0.743121
  H      -0.809054     -2.805702     -0.988591
  H      -2.602996     -2.681724     -0.886319
  H      -1.542035     -1.904161      0.307699
  N      -1.525835     -1.097244     -3.027697
  O      -1.121963     -0.172969     -3.715184
  O      -1.901937     -2.166647     -3.472529
  N       2.829559     -0.045893      0.644836
  C       2.812356     -1.303271      1.387224
  C       2.482576     -1.007525      2.838770
  N       3.495659     -0.101041      3.386654
  C       3.529741      1.158766      2.636191
  C       3.831899      0.875319      1.167478
  H       3.798397      1.804893      0.597288
  H       4.853249      0.467868      1.088587
  H       4.303059      1.803650      3.058968
  H       2.569469      1.694385      2.694615
  H       2.476077     -1.934449      3.414195
  H       1.469651     -0.566532      2.885130
  H       3.780842     -1.826992      1.336137
  H      -0.605103     -0.395553     -1.332210
  H       2.918933     -0.189010     -0.359767
  H       2.062238     -1.964396      0.952041
  H       3.296902      0.087112      4.362243
  H       1.292778      0.716179     -2.968634
  H       2.646546      1.218968     -2.438001
  O       1.741225      1.018407     -2.168947
  H      -6.001645      0.594941     -1.775832
39
Coordinates from ORCA-job /home/rudenko/2025/kie/for_orca/c6h5chno2ch3_piperazine/orca/ts_opt/ts_opt E -859.669457518101
  C      -3.465749      2.039536     -0.006065
  C      -2.433859      1.174039     -0.350621
  C      -2.672349      0.103099     -1.209273
  C      -3.953305     -0.089059     -1.726638
  C      -4.978960      0.789140     -1.397792
  C      -4.738396      1.853466     -0.535041
  H      -3.274710      2.860003      0.672378
  H      -1.441636      1.311339      0.060584
  H      -4.152842     -0.920790     -2.390946
  H      -5.540236      2.532819     -0.275508
  C      -1.555462     -0.865904     -1.514621
  C      -1.643295     -2.179499     -0.752376
  H      -0.793452     -2.813849     -0.994582
  H      -2.585712     -2.698325     -0.912112
  H      -1.538976     -1.922378      0.301901
  N      -1.507915     -1.089815     -3.028068
  O      -1.142160     -0.145261     -3.709269
  O      -1.842123     -2.170016     -3.480337
  N       2.826180     -0.057915      0.628875
  C       2.795432     -1.302361      1.391948
  C       2.453360     -0.978402      2.833608
  N       3.469519     -0.074483      3.378496
  C       3.522497      1.172466      2.607276
  C       3.833389      0.861749      1.145343
  H       3.814241      1.782816      0.560243
  H       4.851379      0.442856      1.081772
  H       4.299326      1.816494      3.024566
  H       2.567044      1.718344      2.649689
  H       2.424986     -1.896844      3.421894
  H       1.445548     -0.524398      2.855458
  H       3.760549     -1.832991      1.356683
  H      -0.592632     -0.403014     -1.323609
  H       2.921242     -0.215231     -0.373334
  H       2.041284     -1.965842      0.966471
  H       3.262232      0.131354      4.348914
  H       1.223009      0.714261     -2.920102
  H       2.604771      1.193963     -2.436616
  O       1.705609      1.008220     -2.136912
  H      -5.967827      0.640414     -1.812278
39
Coordinates from ORCA-job /home/rudenko/2025/kie/for_orca/c6h5chno2ch3_piperazine/orca/ts_opt/ts_opt E -859.669215516586
  C      -3.444549      2.007804      0.042886
  C      -2.417628      1.139274     -0.308684
  C      -2.654042      0.096026     -1.201468
  C      -3.927443     -0.065308     -1.746427
  C      -4.947925      0.816448     -1.410560
  C      -4.709822      1.852829     -0.513070
  H      -3.255445      2.806489      0.747441
  H      -1.430698      1.251694      0.122113
  H      -4.125369     -0.874749     -2.438292
  H      -5.507732      2.534864     -0.248296
  C      -1.540510     -0.874780     -1.513252
  C      -1.629906     -2.193497     -0.761371
  H      -0.776560     -2.823594     -1.002717
  H      -2.566574     -2.717281     -0.937887
  H      -1.536500     -1.943683      0.296372
  N      -1.489379     -1.086639     -3.028257
  O      -1.162949     -0.123954     -3.704227
  O      -1.779996     -2.176710     -3.486802
  N       2.820333     -0.069444      0.613797
  C       2.777593     -1.301484      1.395809
  C       2.424555     -0.950259      2.828515
  N       3.442972     -0.047296      3.369548
  C       3.512575      1.186444      2.578830
  C       3.831189      0.849694      1.124314
  H       3.824745      1.761808      0.525131
  H       4.845947      0.421232      1.075625
  H       4.292306      1.830220      2.990837
  H       2.561609      1.740768      2.605966
  H       2.377361     -1.859315      3.429985
  H       1.421904     -0.485325      2.827101
  H       3.739833     -1.837886      1.376742
  H      -0.579376     -0.412119     -1.314637
  H       2.920618     -0.239665     -0.385064
  H       2.019988     -1.967601      0.979696
  H       3.228018      0.175907      4.334471
  H       1.150919      0.713567     -2.872422
  H       2.555397      1.173156     -2.438102
  O       1.665349      0.999906     -2.106747
  H      -5.930808      0.692461     -1.846900
39
Coordinates from ORCA-job /home/rudenko/2025/kie/for_orca/c6h5chno2ch3_piperazine/orca/ts_opt/ts_opt E -859.668941351443
  C      -3.426108      1.977207      0.087742
  C      -2.403356      1.106004     -0.268644
  C      -2.635820      0.089717     -1.192669
  C      -3.900714     -0.042229     -1.763706
  C      -4.916992      0.842081     -1.422018
  C      -4.683119      1.851623     -0.493839
  H      -3.240205      2.755153      0.815887
  H      -1.422046      1.195180      0.180262
  H      -4.095452     -0.829626     -2.481491
  H      -5.477778      2.535837     -0.225358
  C      -1.524651     -0.881962     -1.510126
  C      -1.615118     -2.205977     -0.768934
  H      -0.758240     -2.831463     -1.011103
  H      -2.546093     -2.734260     -0.962043
  H      -1.533028     -1.965557      0.292385
  N      -1.467632     -1.081189     -3.026705
  O      -1.176119     -0.102742     -3.696211
  O      -1.715481     -2.178445     -3.492687
  N       2.814136     -0.082340      0.600287
  C       2.759192     -1.302235      1.400162
  C       2.396340     -0.923909      2.824192
  N       3.417044     -0.021119      3.360475
  C       3.503811      1.198958      2.550045
  C       3.829496      0.835850      1.103578
  H       3.836129      1.738557      0.489950
  H       4.840684      0.397175      1.069377
  H       4.286849      1.842199      2.956574
  H       2.557639      1.762239      2.561675
  H       2.332142     -1.822646      3.439574
  H       1.398869     -0.448799      2.800355
  H       3.718327     -1.844679      1.397217
  H      -0.565282     -0.419644     -1.303647
  H       2.918758     -0.264444     -0.395541
  H       1.998186     -1.970405      0.993422
  H       3.194777      0.220096      4.319500
  H       1.074104      0.715488     -2.825948
  H       2.499621      1.154811     -2.444018
  O       1.620264      0.994035     -2.079122
  H      -5.893134      0.741458     -1.878848
39
Coordinates from ORCA-job /home/rudenko/2025/kie/for_orca/c6h5chno2ch3_piperazine/orca/ts_opt/ts_opt E -859.668687443941
  C      -3.411646      1.948210      0.128983
  C      -2.391879      1.075820     -0.232681
  C      -2.618637      0.084876     -1.184802
  C      -3.874851     -0.020306     -1.779376
  C      -4.888258      0.865159     -1.432017
  C      -4.660344      1.848858     -0.474926
  H      -3.229825      2.706823      0.878195
  H      -1.416110      1.144148      0.231332
  H      -4.065379     -0.786857     -2.520232
  H      -5.452838      2.534034     -0.202501
  C      -1.508742     -0.887270     -1.506331
  C      -1.600224     -2.216768     -0.776592
  H      -0.739432     -2.837123     -1.020895
  H      -2.525859     -2.748740     -0.985522
  H      -1.528918     -1.987888      0.288277
  N      -1.441582     -1.073340     -3.024256
  O      -1.175662     -0.081766     -3.684962
  O      -1.651137     -2.174149     -3.499656
  N       2.809066     -0.097414      0.588363
  C       2.740831     -1.304474      1.406083
  C       2.369132     -0.898028      2.821145
  N       3.392793      0.004470      3.351721
  C       3.497470      1.209819      2.521579
  C       3.829390      0.819521      1.083996
  H       3.849343      1.711839      0.455596
  H       4.836497      0.370526      1.064360
  H       4.284172      1.852064      2.922604
  H       2.556812      1.782380      2.517221
  H       2.288875     -1.785195      3.451252
  H       1.377225     -0.412763      2.775760
  H       3.696182     -1.853601      1.419599
  H      -0.550787     -0.425712     -1.291225
  H       2.917523     -0.290859     -0.404214
  H       1.976040     -1.974112      1.008988
  H       3.163751      0.264404      4.304255
  H       0.994080      0.720287     -2.781573
  H       2.438510      1.137269     -2.455049
  O       1.571982      0.990224     -2.055384
  H      -5.857568      0.785634     -1.907116
39
Coordinates from ORCA-job /home/rudenko/2025/kie/for_orca/c6h5chno2ch3_piperazine/orca/ts_opt/ts_opt E -859.668546871119
  C      -3.404147      1.923212      0.162985
  C      -2.384659      1.052047     -0.201854
  C      -2.603021      0.082464     -1.177241
  C      -3.850776     -0.002138     -1.792165
  C      -4.864047      0.881823     -1.440827
  C      -4.644678      1.843651     -0.460354
  H      -3.228315      2.665798      0.929440
  H      -1.414025      1.105535      0.274543
  H      -4.035085     -0.750805     -2.552499
  H      -5.437140      2.527802     -0.185567
  C      -1.492680     -0.888704     -1.500941
  C      -1.585466     -2.224425     -0.784127
  H      -0.720769     -2.839158     -1.032372
  H      -2.506422     -2.758720     -1.008283
  H      -1.523601     -2.009284      0.284480
  N      -1.411005     -1.060318     -3.019872
  O      -1.155902     -0.058400     -3.668903
  O      -1.591954     -2.160263     -3.506995
  N       2.806326     -0.114820      0.579424
  C       2.724005     -1.308729      1.414403
  C       2.344901     -0.874155      2.820286
  N       3.372467      0.027696      3.344207
  C       3.496131      1.217665      2.494439
  C       3.833066      0.799749      1.066177
  H       3.866894      1.681015      0.422809
  H       4.835427      0.339519      1.060601
  H       4.287242      1.858008      2.889841
  H       2.561839      1.800429      2.473979
  H       2.249819     -1.749031      3.465321
  H       1.358780     -0.378864      2.755370
  H       3.674955     -1.865037      1.444099
  H      -0.536536     -0.428820     -1.276361
  H       2.916872     -0.319084     -0.410624
  H       1.955014     -1.978995      1.026920
  H       3.137445      0.306716      4.289887
  H       0.907579      0.728777     -2.739966
  H       2.369981      1.120173     -2.472255
  O       1.518108      0.989326     -2.036337
  H      -5.826624      0.818345     -1.931669
39
Coordinates from ORCA-job /home/rudenko/2025/kie/for_orca/c6h5chno2ch3_piperazine/orca/ts_opt/ts_opt E -859.668517916354
  C      -3.402084      1.902368      0.190164
  C      -2.380630      1.034916     -0.177744
  C      -2.589530      0.082246     -1.171339
  C      -3.829907      0.012030     -1.802734
  C      -4.845208      0.892373     -1.448202
  C      -4.635666      1.836005     -0.448138
  H      -3.232976      2.632183      0.970301
  H      -1.414194      1.079609      0.307781
  H      -4.007208     -0.722332     -2.578265
  H      -5.429919      2.517117     -0.170886
  C      -1.477605     -0.887029     -1.495275
  C      -1.572033     -2.229666     -0.792894
  H      -0.703434     -2.838279     -1.046597
  H      -2.489037     -2.765075     -1.030974
  H      -1.517810     -2.029788      0.279255
  N      -1.377879     -1.043876     -3.014753
  O      -1.118851     -0.034113     -3.650112
  O      -1.542484     -2.139344     -3.515134
  N       2.806048     -0.133730      0.572780
  C       2.708888     -1.314225      1.424555
  C       2.323910     -0.851611      2.821128
  N       3.356304      0.048929      3.337771
  C       3.499241      1.223050      2.469269
  C       3.839815      0.777729      1.050624
  H       3.887465      1.647427      0.392655
  H       4.836936      0.306205      1.058646
  H       4.295309      1.860657      2.859188
  H       2.572095      1.816377      2.432964
  H       2.215068     -1.713736      3.480921
  H       1.343855     -0.346334      2.738960
  H       3.654794     -1.878158      1.470017
  H      -0.523247     -0.429497     -1.260185
  H       2.917554     -0.347999     -0.414850
  H       1.935207     -1.984348      1.046562
  H       3.116350      0.346820      4.276394
  H       0.820685      0.740691     -2.699408
  H       2.298675      1.102150     -2.491075
  O       1.463452      0.990230     -2.019750
  H      -5.801952      0.840029     -1.951620
39
Coordinates from ORCA-job /home/rudenko/2025/kie/for_orca/c6h5chno2ch3_piperazine/orca/ts_opt/ts_opt E -859.668331558647
  C      -3.408705      1.881513      0.215832
  C      -2.382171      1.020871     -0.153669
  C      -2.577562      0.084256     -1.165342
  C      -3.809879      0.024983     -1.813585
  C      -4.830040      0.898901     -1.457196
  C      -4.634246      1.824954     -0.438456
  H      -3.249641      2.598516      1.009957
  H      -1.421570      1.060198      0.343582
  H      -3.977246     -0.695644     -2.604028
  H      -5.432671      2.500420     -0.159333
  C      -1.462863     -0.881974     -1.489064
  C      -1.559547     -2.231877     -0.802293
  H      -0.687715     -2.836132     -1.061221
  H      -2.473956     -2.766546     -1.052277
  H      -1.510995     -2.047370      0.271574
  N      -1.345317     -1.025082     -3.008619
  O      -1.077543     -0.008028     -3.631085
  O      -1.501323     -2.114500     -3.521603
  N       2.808342     -0.153043      0.565123
  C       2.693313     -1.318931      1.433982
  C       2.303937     -0.827742      2.820177
  N       3.342446      0.069982      3.329339
  C       3.507054      1.227757      2.442902
  C       3.850571      0.753203      1.034807
  H       3.914384      1.610029      0.361504
  H       4.841243      0.268558      1.057982
  H       4.309460      1.860667      2.827582
  H       2.588888      1.833790      2.389998
  H       2.180916     -1.676818      3.494235
  H       1.330085     -0.311163      2.723101
  H       3.633418     -1.891248      1.494482
  H      -0.510080     -0.427295     -1.242878
  H       2.921054     -0.377327     -0.422454
  H       1.913791     -1.988145      1.065677
  H       3.098247      0.386461      4.260733
  H       0.742482      0.753612     -2.650049
  H       2.235542      1.077689     -2.499666
  O       1.418048      0.987527     -1.996054
  H      -5.780152      0.854978     -1.973700
39
Coordinates from ORCA-job /home/rudenko/2025/kie/for_orca/c6h5chno2ch3_piperazine/orca/ts_opt/ts_opt E -859.668094342243
  C      -3.416046      1.860973      0.239192
  C      -2.383608      1.008623     -0.133391
  C      -2.565737      0.086835     -1.160607
  C      -3.790275      0.036985     -1.824498
  C      -4.815924      0.903707     -1.466089
  C      -4.634206      1.812459     -0.429019
  H      -3.267129      2.565221      1.046854
  H      -1.428850      1.044708      0.374375
  H      -3.947592     -0.670975     -2.628214
  H      -5.437423      2.481099     -0.146829
  C      -1.448532     -0.876590     -1.482887
  C      -1.547481     -2.233559     -0.811629
  H      -0.673921     -2.834039     -1.076312
  H      -2.459787     -2.766759     -1.072500
  H      -1.503325     -2.064583      0.263802
  N      -1.316017     -1.008769     -3.002203
  O      -1.036204      0.013378     -3.613918
  O      -1.470306     -2.091742     -3.525975
  N       2.810989     -0.172102      0.557925
  C       2.676637     -1.323391      1.442766
  C       2.284411     -0.803659      2.818390
  N       3.329684      0.090438      3.320242
  C       3.516046      1.231484      2.417068
  C       3.861936      0.727881      1.020306
  H       3.942761      1.571114      0.331937
  H       4.845517      0.229841      1.059405
  H       4.325089      1.858851      2.796930
  H       2.607614      1.850257      2.347559
  H       2.147594     -1.639355      3.506412
  H       1.317248     -0.275629      2.708002
  H       3.610327     -1.904491      1.517852
  H      -0.496963     -0.425093     -1.224669
  H       2.925603     -0.404326     -0.428479
  H       1.891119     -1.991225      1.084261
  H       3.081903      0.425014      4.244323
  H       0.671135      0.774375     -2.599370
  H       2.176168      1.057327     -2.505417
  O       1.377268      0.988745     -1.971014
  H      -5.759724      0.866972     -1.994582
39
Coordinates from ORCA-job /home/rudenko/2025/kie/for_orca/c6h5chno2ch3_piperazine/orca/ts_opt/ts_opt E -859.667830819705
  C      -3.425617      1.843453      0.257027
  C      -2.386079      1.000635     -0.117624
  C      -2.555359      0.090098     -1.156302
  C      -3.773225      0.045308     -1.832977
  C      -4.805320      0.903825     -1.473695
  C      -4.637507      1.798671     -0.422552
  H      -3.286782      2.537393      1.075274
  H      -1.436050      1.038206      0.398092
  H      -3.920466     -0.652730     -2.647092
  H      -5.446292      2.459576     -0.138310
  C      -1.435100     -0.869958     -1.476189
  C      -1.535897     -2.234118     -0.820412
  H      -0.661525     -2.830719     -1.091776
  H      -2.446774     -2.765187     -1.090671
  H      -1.494028     -2.081081      0.257019
  N      -1.288377     -0.991556     -2.995267
  O      -0.987960      0.033081     -3.595526
  O      -1.449984     -2.066553     -3.530653
  N       2.813957     -0.190774      0.552104
  C       2.660213     -1.328231      1.451515
  C       2.266817     -0.781311      2.817001
  N       3.319560      0.108515      3.311597
  C       3.527211      1.233091      2.392731
  C       3.874321      0.701825      1.007169
  H       3.972259      1.531391      0.304585
  H       4.850328      0.190106      1.061577
  H       4.343136      1.854388      2.767975
  H       2.628717      1.864286      2.307537
  H       2.117183     -1.603757      3.518358
  H       1.306610     -0.242331      2.695079
  H       3.587182     -1.918272      1.540266
  H      -0.485290     -0.422256     -1.205297
  H       2.930089     -0.428903     -0.432976
  H       1.868891     -1.994439      1.102818
  H       3.069113      0.460407      4.228531
  H       0.605263      0.802795     -2.549673
  H       2.120053      1.039971     -2.510642
  O       1.340312      0.994172     -1.946431
  H      -5.743583      0.870981     -2.012189
39
Coordinates from ORCA-job /home/rudenko/2025/kie/for_orca/c6h5chno2ch3_piperazine/orca/ts_opt/ts_opt E -859.667525230569
  C      -3.437181      1.829572      0.268789
  C      -2.389337      0.998389     -0.109193
  C      -2.547431      0.094533     -1.154555
  C      -3.760867      0.049018     -1.839468
  C      -4.800364      0.897880     -1.478841
  C      -4.645309      1.782420     -0.416866
  H      -3.307388      2.516146      1.094673
  H      -1.441884      1.042924      0.410147
  H      -3.899171     -0.642926     -2.660218
  H      -5.460690      2.433825     -0.129369
  C      -1.423810     -0.861610     -1.471491
  C      -1.525625     -2.232619     -0.830855
  H      -0.650299     -2.825312     -1.109553
  H      -2.436388     -2.761028     -1.106730
  H      -1.482774     -2.095462      0.248187
  N      -1.267748     -0.974517     -2.990435
  O      -0.945182      0.051392     -3.581662
  O      -1.447503     -2.040569     -3.536051
  N       2.819878     -0.209291      0.548208
  C       2.645351     -1.332844      1.460913
  C       2.251824     -0.760073      2.816598
  N       3.312433      0.124361      3.304957
  C       3.540947      1.232938      2.372161
  C       3.889114      0.675388      0.998040
  H       4.004378      1.491193      0.282291
  H       4.857120      0.150409      1.068254
  H       4.363399      1.847893      2.743740
  H       2.652523      1.875818      2.271707
  H       2.089630     -1.569469      3.530372
  H       1.298787     -0.209994      2.684594
  H       3.565032     -1.932350      1.562648
  H      -0.475239     -0.418559     -1.187049
  H       2.938541     -0.452209     -0.435630
  H       1.847896     -1.996773      1.121519
  H       3.059827      0.492409      4.214946
  H       0.553223      0.838389     -2.502791
  H       2.075007      1.023623     -2.514716
  O       1.314218      1.002629     -1.923676
  H      -5.734938      0.864458     -2.023594
39
Coordinates from ORCA-job /home/rudenko/2025/kie/for_orca/c6h5chno2ch3_piperazine/orca/ts_opt/ts_opt E -859.667184140900
  C      -3.449066      1.819489      0.275475
  C      -2.392513      1.000786     -0.106069
  C      -2.541464      0.099466     -1.154334
  C      -3.752799      0.048180     -1.842822
  C      -4.799952      0.886691     -1.480644
  C      -4.655587      1.765157     -0.412251
  H      -3.326942      2.501706      1.106123
  H      -1.445669      1.056656      0.412950
  H      -3.883662     -0.640991     -2.667159
  H      -5.477814      2.406361     -0.121449
  C      -1.414248     -0.852425     -1.468806
  C      -1.516267     -2.230173     -0.842874
  H      -0.640499     -2.818345     -1.129920
  H      -2.427730     -2.755884     -1.121313
  H      -1.469377     -2.108551      0.237794
  N      -1.253177     -0.956868     -2.987894
  O      -0.905525      0.067450     -3.570913
  O      -1.459047     -2.012255     -3.543681
  N       2.827598     -0.227025      0.546288
  C       2.631868     -1.337025      1.470817
  C       2.238966     -0.740265      2.817305
  N       3.307522      0.138093      3.300376
  C       3.555809      1.231348      2.354990
  C       3.905225      0.649439      0.992158
  H       4.037660      1.451811      0.264428
  H       4.865023      0.111652      1.078136
  H       4.384047      1.840262      2.723677
  H       2.676922      1.884607      2.239916
  H       2.064690     -1.537043      3.542407
  H       1.293403     -0.179521      2.676129
  H       3.543763     -1.946261      1.585168
  H      -0.466908     -0.415089     -1.170268
  H       2.949476     -0.474200     -0.436031
  H       1.828042     -1.998143      1.139962
  H       3.053189      0.521138      4.203688
  H       0.512768      0.878759     -2.459983
  H       2.038317      1.008364     -2.519372
  O       1.296500      1.013603     -1.903510
  H      -5.732542      0.849047     -2.028496
39
Coordinates from ORCA-job /home/rudenko/2025/kie/for_orca/c6h5chno2ch3_piperazine/orca/ts_opt/ts_opt E -859.666675831279
  C      -3.453032      1.823560      0.265251
  C      -2.402173      1.003854     -0.138876
  C      -2.561373      0.097242     -1.177575
  C      -3.780183      0.042571     -1.834706
  C      -4.822030      0.883756     -1.453978
  C      -4.665871      1.767028     -0.393269
  H      -3.321497      2.507577      1.084560
  H      -1.451148      1.064590      0.356710
  H      -3.920472     -0.651198     -2.648547
  H      -5.483604      2.409109     -0.086477
  C      -1.437376     -0.855912     -1.499358
  C      -1.538237     -2.246002     -0.885718
  H      -0.653291     -2.826749     -1.172437
  H      -2.449321     -2.781128     -1.157699
  H      -1.497320     -2.128312      0.202614
  N      -1.281545     -0.946539     -3.026519
  O      -0.891552      0.051362     -3.592212
  O      -1.514711     -1.990860     -3.593774
  N       2.848707     -0.238970      0.560695
  C       2.651746     -1.338834      1.495956
  C       2.257742     -0.731657      2.844139
  N       3.320426      0.156600      3.325739
  C       3.565248      1.242196      2.368019
  C       3.919433      0.644752      1.006216
  H       4.049611      1.441665      0.268578
  H       4.878051      0.109161      1.100021
  H       4.386653      1.860326      2.735753
  H       2.686778      1.892130      2.242614
  H       2.090196     -1.521122      3.573997
  H       1.316058     -0.180760      2.703882
  H       3.564656     -1.944932      1.622476
  H      -0.490049     -0.413379     -1.192876
  H       2.975360     -0.491129     -0.413629
  H       1.855351     -2.002473      1.154096
  H       3.066035      0.549404      4.230001
  H       0.541967      0.892319     -2.467030
  H       2.071497      0.989585     -2.518382
  O       1.330738      1.016421     -1.911897
  H      -5.761467      0.844747     -1.976356
39
Coordinates from ORCA-job /home/rudenko/2025/kie/for_orca/c6h5chno2ch3_piperazine/orca/ts_opt/ts_opt E -859.667507548411
  C      -3.416498      1.823663      0.273724
  C      -2.375378      0.986922     -0.116804
  C      -2.545575      0.084623     -1.168689
  C      -3.762692      0.048494     -1.843366
  C      -4.794500      0.904524     -1.470218
  C      -4.628540      1.785461     -0.402529
  H      -3.277932      2.506699      1.095514
  H      -1.424621      1.033469      0.393498
  H      -3.909683     -0.641087     -2.667003
  H      -5.438180      2.440895     -0.105607
  C      -1.425216     -0.873215     -1.482034
  C      -1.529775     -2.251930     -0.853736
  H      -0.657135     -2.840917     -1.140902
  H      -2.438708     -2.782105     -1.135481
  H      -1.494774     -2.123500      0.229399
  N      -1.261490     -0.972498     -3.006083
  O      -0.895040      0.037774     -3.574778
  O      -1.469648     -2.023405     -3.575439
  N       2.813346     -0.220142      0.558385
  C       2.640043     -1.330582      1.474665
  C       2.256626     -0.745820      2.827619
  N       3.315895      0.144394      3.308768
  C       3.540338      1.238407      2.369609
  C       3.882476      0.665718      1.002608
  H       3.998973      1.470804      0.277966
  H       4.845654      0.139381      1.080141
  H       4.361036      1.856317      2.737656
  H       2.655694      1.877318      2.261364
  H       2.102878     -1.540394      3.548010
  H       1.313161     -0.205503      2.696008
  H       3.557539     -1.923724      1.591751
  H      -0.478297     -0.427274     -1.181452
  H       2.932651     -0.465635     -0.415799
  H       1.846430     -1.995238      1.131435
  H       3.067746      0.522797      4.214616
  H       0.512547      0.874449     -2.483306
  H       2.028807      1.023777     -2.525203
  O       1.284309      1.017317     -1.917951
  H      -5.732467      0.879768     -2.006357
39
Coordinates from ORCA-job /home/rudenko/2025/kie/for_orca/c6h5chno2ch3_piperazine/orca/ts_opt/ts_opt E -859.667032390376
  C      -3.432066      1.825167      0.247749
  C      -2.390828      0.991856     -0.133266
  C      -2.563545      0.083886     -1.164104
  C      -3.785528      0.039199     -1.828951
  C      -4.818097      0.891994     -1.472584
  C      -4.648842      1.777554     -0.430177
  H      -3.289229      2.516453      1.072180
  H      -1.438544      1.049854      0.363887
  H      -3.934863     -0.654952     -2.633549
  H      -5.458700      2.431385     -0.143779
  C      -1.442597     -0.873818     -1.480774
  C      -1.548399     -2.250773     -0.853173
  H      -0.677370     -2.841979     -1.137957
  H      -2.460081     -2.777662     -1.123160
  H      -1.511441     -2.116200      0.227513
  N      -1.268452     -0.970069     -3.010010
  O      -0.910787      0.082161     -3.582917
  O      -1.484693     -2.021821     -3.594268
  N       2.836221     -0.217810      0.569174
  C       2.661938     -1.334062      1.486463
  C       2.270060     -0.758052      2.842692
  N       3.331879      0.131179      3.322792
  C       3.564051      1.236434      2.379902
  C       3.906949      0.669685      1.010178
  H       4.022191      1.480023      0.286608
  H       4.871550      0.140917      1.080970
  H       4.388404      1.854278      2.746026
  H       2.676224      1.884339      2.275169
  H       2.112069     -1.562456      3.567449
  H       1.320128     -0.214551      2.714846
  H       3.581742     -1.931649      1.600712
  H      -0.497438     -0.424701     -1.185460
  H       2.949520     -0.462431     -0.401350
  H       1.869648     -1.996813      1.139166
  H       3.082638      0.507218      4.231658
  H       0.522966      0.889141     -2.513263
  H       2.054984      1.035588     -2.534602
  O       1.298319      1.031404     -1.935627
  H      -5.759978      0.860085     -2.006165
39
Coordinates from ORCA-job /home/rudenko/2025/kie/for_orca/c6h5chno2ch3_piperazine/orca/ts_opt/ts_opt E -859.663839664706
  C      -3.422132      1.827544      0.237560
  C      -2.372316      0.998645     -0.136727
  C      -2.530728      0.092090     -1.153478
  C      -3.741899      0.040311     -1.800542
  C      -4.782828      0.887368     -1.435992
  C      -4.629703      1.773754     -0.414633
  H      -3.292002      2.520924      1.049036
  H      -1.423401      1.055691      0.370345
  H      -3.878862     -0.655357     -2.591435
  H      -5.446311      2.423268     -0.122862
  C      -1.404480     -0.860128     -1.472791
  C      -1.519720     -2.231667     -0.836814
  H      -0.656472     -2.832454     -1.116705
  H      -2.435354     -2.750558     -1.119060
  H      -1.486153     -2.096957      0.246138
  N      -1.241328     -0.967056     -2.997752
  O      -0.901783      0.070006     -3.586455
  O      -1.439468     -2.030484     -3.553687
  N       2.810144     -0.213405      0.544054
  C       2.632333     -1.343125      1.464270
  C       2.231452     -0.767257      2.830465
  N       3.289897      0.118655      3.318406
  C       3.533296      1.237088      2.366287
  C       3.889617      0.668078      0.986997
  H       4.016613      1.489055      0.260411
  H       4.858596      0.126139      1.057961
  H       4.358032      1.850646      2.736662
  H       2.639749      1.897651      2.257503
  H       2.066486     -1.579621      3.562965
  H       1.277387     -0.214277      2.695860
  H       3.556692     -1.947315      1.576404
  H      -0.455316     -0.416683     -1.185486
  H       2.924919     -0.455389     -0.431418
  H       1.837142     -2.007799      1.120158
  H       3.025649      0.497076      4.234962
  H       0.511690      0.872436     -2.522751
  H       2.036571      1.049421     -2.543032
  O       1.281836      1.026050     -1.944437
  H      -5.717846      0.847635     -1.950388
39
Coordinates from ORCA-job /home/rudenko/2025/kie/for_orca/c6h5chno2ch3_piperazine/orca/ts_opt/ts_opt E -859.666571527587
  C      -3.414873      1.838715      0.270985
  C      -2.363027      1.005551     -0.100228
  C      -2.516212      0.096479     -1.143496
  C      -3.725664      0.040946     -1.834296
  C      -4.770341      0.886818     -1.489606
  C      -4.621177      1.783622     -0.417219
  H      -3.291884      2.533266      1.099526
  H      -1.419854      1.052197      0.425412
  H      -3.854884     -0.657372     -2.651168
  H      -5.439463      2.435118     -0.133579
  C      -1.387303     -0.856100     -1.454237
  C      -1.507064     -2.221087     -0.806694
  H      -0.648276     -2.831318     -1.085845
  H      -2.425192     -2.731441     -1.088385
  H      -1.470040     -2.081618      0.275128
  N      -1.238951     -0.980288     -2.966106
  O      -0.924029      0.024779     -3.570422
  O      -1.428749     -2.035189     -3.489333
  N       2.796264     -0.199317      0.537219
  C       2.625444     -1.335385      1.443860
  C       2.232290     -0.778382      2.811399
  N       3.293154      0.103447      3.301885
  C       3.523023      1.227085      2.366088
  C       3.872401      0.677823      0.983966
  H       3.987244      1.500864      0.270013
  H       4.841636      0.147418      1.047404
  H       4.347332      1.839389      2.737537
  H       2.629901      1.878003      2.274246
  H       2.073935     -1.593986      3.530066
  H       1.277815     -0.228092      2.685994
  H       3.550232     -1.936709      1.544179
  H      -0.436399     -0.416787     -1.172911
  H       2.908558     -0.442249     -0.441025
  H       1.825342     -1.998951      1.100266
  H       3.031394      0.467848      4.216134
  H       0.489527      0.850633     -2.538462
  H       2.022118      1.065802     -2.549589
  O       1.258149      1.022004     -1.951719
  H      -5.702379      0.846463     -2.036988
39
Coordinates from ORCA-job /home/rudenko/2025/kie/for_orca/c6h5chno2ch3_piperazine/orca/ts_opt/ts_opt E -859.666587395869
  C      -3.404616      1.841024      0.256008
  C      -2.359999      0.999587     -0.127414
  C      -2.524597      0.085937     -1.164089
  C      -3.736859      0.033351     -1.833486
  C      -4.771170      0.894259     -1.452023
  C      -4.609773      1.793723     -0.393797
  H      -3.272983      2.533701      1.063459
  H      -1.409159      1.047988      0.384799
  H      -3.878913     -0.671646     -2.658887
  H      -5.421152      2.454060     -0.093362
  C      -1.397682     -0.866512     -1.473064
  C      -1.522306     -2.228040     -0.824330
  H      -0.666742     -2.841543     -1.096470
  H      -2.443630     -2.736384     -1.104126
  H      -1.491784     -2.082511      0.257081
  N      -1.242033     -0.990828     -2.983339
  O      -0.923618      0.011540     -3.585490
  O      -1.435612     -2.047743     -3.510290
  N       2.797654     -0.197704      0.549539
  C       2.635902     -1.334723      1.455952
  C       2.240483     -0.780660      2.827913
  N       3.299579      0.108837      3.313366
  C       3.518150      1.232455      2.382571
  C       3.866696      0.688048      0.997027
  H       3.972192      1.513848      0.284144
  H       4.841061      0.163341      1.056385
  H       4.339263      1.848062      2.753745
  H       2.622616      1.876013      2.295358
  H       2.090815     -1.596813      3.546986
  H       1.282279     -0.238083      2.707752
  H       3.564176     -1.932009      1.558579
  H      -0.449458     -0.423784     -1.190784
  H       2.908056     -0.439080     -0.425850
  H       1.842656     -2.000420      1.102205
  H       3.040711      0.471182      4.229735
  H       0.510837      0.850937     -2.576700
  H       2.028987      1.074599     -2.568064
  O       1.265989      1.027646     -1.984740
  H      -5.706019      0.858345     -1.976301
39
Coordinates from ORCA-job /home/rudenko/2025/kie/for_orca/c6h5chno2ch3_piperazine/orca/ts_opt/ts_opt E -859.667319479515
  C      -3.397608      1.844666      0.257306
  C      -2.359895      0.998732     -0.122774
  C      -2.536949      0.083465     -1.157691
  C      -3.754193      0.035982     -1.819798
  C      -4.784959      0.894564     -1.475761
  C      -4.614440      1.792376     -0.438645
  H      -3.254110      2.545030      1.088697
  H      -1.405243      1.050942      0.384709
  H      -3.899452     -0.659348     -2.597517
  H      -5.421820      2.454345     -0.158360
  C      -1.414857     -0.874878     -1.473662
  C      -1.538253     -2.243791     -0.829415
  H      -0.682103     -2.859220     -1.106282
  H      -2.461047     -2.753443     -1.107285
  H      -1.509286     -2.097507      0.253385
  N      -1.267101     -0.988138     -2.990649
  O      -0.935660      0.012392     -3.584672
  O      -1.465317     -2.045055     -3.529519
  N       2.805656     -0.195376      0.564326
  C       2.653417     -1.332643      1.462315
  C       2.263361     -0.788521      2.835563
  N       3.315607      0.107109      3.321911
  C       3.523709      1.233335      2.394791
  C       3.871973      0.695972      1.007693
  H       3.970850      1.525706      0.295813
  H       4.849418      0.174301      1.059771
  H       4.341002      1.851794      2.767065
  H       2.623650      1.872995      2.308505
  H       2.127283     -1.603009      3.548926
  H       1.302328     -0.258205      2.721763
  H       3.581592     -1.922574      1.560867
  H      -0.467389     -0.427764     -1.192318
  H       2.911926     -0.433544     -0.409610
  H       1.865228     -1.999413      1.100579
  H       3.059062      0.465817      4.240361
  H       0.519593      0.857229     -2.595318
  H       2.040864      1.088302     -2.577765
  O       1.267488      1.037983     -1.996949
  H      -5.724326      0.859390     -2.010355
39
Coordinates from ORCA-job /home/rudenko/2025/kie/for_orca/c6h5chno2ch3_piperazine/orca/ts_opt/ts_opt E -859.669219640021
  C      -3.397647      1.844186      0.244646
  C      -2.365793      0.994776     -0.131289
  C      -2.550123      0.077310     -1.155290
  C      -3.772536      0.029478     -1.821508
  C      -4.797061      0.898144     -1.473701
  C      -4.613305      1.802528     -0.426370
  H      -3.247768      2.539280      1.050722
  H      -1.406596      1.050335      0.364018
  H      -3.932474     -0.683281     -2.640190
  H      -5.414288      2.472558     -0.145504
  C      -1.429266     -0.883469     -1.476396
  C      -1.552976     -2.251479     -0.832080
  H      -0.699718     -2.871256     -1.107011
  H      -2.477486     -2.757002     -1.104248
  H      -1.526333     -2.100973      0.248854
  N      -1.283413     -0.992300     -2.999303
  O      -0.945935      0.030503     -3.589211
  O      -1.479931     -2.057152     -3.551389
  N       2.814262     -0.192525      0.578962
  C       2.667625     -1.332051      1.473965
  C       2.281916     -0.793924      2.849241
  N       3.333423      0.106629      3.331058
  C       3.532900      1.234077      2.406765
  C       3.875993      0.703537      1.019335
  H       3.963848      1.532341      0.312271
  H       4.853591      0.191141      1.065067
  H       4.348954      1.856344      2.777568
  H       2.631011      1.868233      2.325025
  H       2.154855     -1.610355      3.563069
  H       1.317597     -0.269947      2.743850
  H       3.596700     -1.919558      1.569925
  H      -0.482105     -0.430468     -1.196519
  H       2.917587     -0.428947     -0.394279
  H       1.882977     -1.997804      1.105856
  H       3.082194      0.462606      4.249772
  H       0.531989      0.863480     -2.620656
  H       2.053372      1.099569     -2.589015
  O       1.273528      1.048451     -2.015946
  H      -5.739569      0.866986     -2.010065
39
Coordinates from ORCA-job /home/rudenko/2025/kie/for_orca/c6h5chno2ch3_piperazine/orca/ts_opt/ts_opt E -859.669020536175
  C      -3.385878      1.848423      0.233901
  C      -2.356203      0.990592     -0.143718
  C      -2.544294      0.067526     -1.173741
  C      -3.766285      0.021608     -1.836326
  C      -4.784998      0.901740     -1.467952
  C      -4.599429      1.808944     -0.429243
  H      -3.232497      2.552796      1.061754
  H      -1.395326      1.043351      0.356804
  H      -3.926084     -0.685023     -2.617527
  H      -5.397248      2.486742     -0.135673
  C      -1.423071     -0.892862     -1.484473
  C      -1.558308     -2.250782     -0.831856
  H      -0.712069     -2.880313     -1.095592
  H      -2.487211     -2.747568     -1.108649
  H      -1.541342     -2.091826      0.247256
  N      -1.273350     -1.011835     -3.003394
  O      -0.948603      0.014937     -3.601119
  O      -1.467607     -2.076516     -3.551027
  N       2.795876     -0.185021      0.585955
  C       2.660841     -1.331277      1.473985
  C       2.283859     -0.801201      2.856368
  N       3.344349      0.104346      3.325313
  C       3.528749      1.234370      2.418155
  C       3.852598      0.716112      1.026354
  H       3.923895      1.547072      0.329693
  H       4.831540      0.217677      1.057421
  H       4.349270      1.859718      2.782765
  H       2.629320      1.855472      2.357556
  H       2.166942     -1.622390      3.567994
  H       1.316385     -0.283003      2.765536
  H       3.592755     -1.916417      1.562620
  H      -0.475127     -0.438227     -1.203074
  H       2.895780     -0.416902     -0.387752
  H       1.879335     -1.996945      1.099234
  H       3.108650      0.451533      4.244079
  H       0.538037      0.855481     -2.654644
  H       2.038701      1.121934     -2.600267
  O       1.262426      1.053704     -2.043695
  H      -5.724380      0.874030     -1.983020
39
Coordinates from ORCA-job /home/rudenko/2025/kie/for_orca/c6h5chno2ch3_piperazine/orca/ts_opt/ts_opt E -859.669006016242
  C      -3.378474      1.856212      0.239044
  C      -2.348602      0.997580     -0.122018
  C      -2.537694      0.072496     -1.148470
  C      -3.759351      0.025837     -1.808595
  C      -4.778420      0.903348     -1.462415
  C      -4.594896      1.809979     -0.452313
  H      -3.229292      2.554110      1.028665
  H      -1.389905      1.053479      0.376474
  H      -3.922830     -0.693179     -2.609179
  H      -5.393137      2.484249     -0.194714
  C      -1.417543     -0.891199     -1.472159
  C      -1.558159     -2.252996     -0.818668
  H      -0.716642     -2.893403     -1.084564
  H      -2.491788     -2.742163     -1.096854
  H      -1.543484     -2.092639      0.260788
  N      -1.283614     -1.011763     -2.994246
  O      -0.968812      0.002280     -3.600624
  O      -1.483802     -2.070366     -3.535774
  N       2.792123     -0.174646      0.590762
  C       2.662711     -1.329904      1.467378
  C       2.292438     -0.817974      2.855389
  N       3.343064      0.087082      3.332820
  C       3.523806      1.231963      2.426211
  C       3.854146      0.725628      1.026303
  H       3.924682      1.570836      0.327432
  H       4.841227      0.220769      1.046230
  H       4.339514      1.854159      2.797045
  H       2.613342      1.860174      2.363970
  H       2.189014     -1.641485      3.558324
  H       1.320279     -0.310031      2.773187
  H       3.595018     -1.912403      1.542577
  H      -0.468629     -0.436252     -1.198614
  H       2.886284     -0.403911     -0.385855
  H       1.881565     -1.993366      1.086934
  H       3.102563      0.427498      4.260048
  H       0.530870      0.849932     -2.685407
  H       2.044088      1.148361     -2.615330
  O       1.251430      1.063798     -2.063095
  H      -5.723090      0.867912     -2.010688
39
Coordinates from ORCA-job /home/rudenko/2025/kie/for_orca/c6h5chno2ch3_piperazine/orca/ts_opt/ts_opt E -859.669764185636
  C      -3.373711      1.859439      0.233160
  C      -2.347223      0.995125     -0.142369
  C      -2.535956      0.069410     -1.155881
  C      -3.757598      0.020017     -1.815136
  C      -4.777855      0.898265     -1.479458
  C      -4.587433      1.820549     -0.432936
  H      -3.218909      2.568596      1.049170
  H      -1.386990      1.049159      0.355218
  H      -3.921171     -0.700247     -2.604248
  H      -5.382958      2.504456     -0.153738
  C      -1.415749     -0.895427     -1.475405
  C      -1.563381     -2.250965     -0.815805
  H      -0.727682     -2.900542     -1.073466
  H      -2.500354     -2.731019     -1.093444
  H      -1.554860     -2.086616      0.262472
  N      -1.286099     -1.021982     -2.996544
  O      -0.970649     -0.004597     -3.603623
  O      -1.476532     -2.095308     -3.538047
  N       2.787156     -0.167835      0.596450
  C       2.663762     -1.328184      1.469374
  C       2.300111     -0.824771      2.862062
  N       3.345845      0.081978      3.339945
  C       3.516072      1.230441      2.433289
  C       3.846936      0.732921      1.030014
  H       3.907523      1.579470      0.334827
  H       4.837233      0.233324      1.044963
  H       4.326469      1.853626      2.807514
  H       2.600956      1.854854      2.372262
  H       2.207571     -1.652849      3.566674
  H       1.322336     -0.320550      2.789769
  H       3.597927     -1.910352      1.537242
  H      -0.464096     -0.440202     -1.203527
  H       2.879520     -0.395935     -0.381919
  H       1.883251     -1.990285      1.084734
  H       3.104251      0.418762      4.270663
  H       0.542692      0.845237     -2.724088
  H       2.046407      1.166404     -2.639567
  O       1.251529      1.071655     -2.097797
  H      -5.718342      0.863977     -2.012800
39
Coordinates from ORCA-job /home/rudenko/2025/kie/for_orca/c6h5chno2ch3_piperazine/orca/ts_opt/ts_opt E -859.670077373333
  C      -3.367022      1.862049      0.223121
  C      -2.338705      0.998921     -0.129784
  C      -2.530242      0.066525     -1.151972
  C      -3.755766      0.014045     -1.819519
  C      -4.771531      0.899406     -1.475005
  C      -4.582563      1.818214     -0.461678
  H      -3.214487      2.570226      1.020034
  H      -1.380016      1.056232      0.369297
  H      -3.922573     -0.710818     -2.609649
  H      -5.377599      2.502114     -0.198472
  C      -1.411912     -0.898819     -1.474161
  C      -1.568676     -2.254631     -0.813561
  H      -0.738569     -2.913575     -1.066364
  H      -2.510324     -2.726755     -1.095320
  H      -1.567592     -2.085759      0.265106
  N      -1.292276     -1.024421     -2.996002
  O      -0.984131     -0.006714     -3.608390
  O      -1.488011     -2.092940     -3.527327
  N       2.773379     -0.162275      0.607568
  C       2.659333     -1.330461      1.471738
  C       2.308115     -0.834631      2.872677
  N       3.368724      0.077965      3.332334
  C       3.527398      1.229408      2.444483
  C       3.830376      0.742354      1.038054
  H       3.871543      1.586242      0.359324
  H       4.816078      0.261817      1.033486
  H       4.348218      1.858011      2.807208
  H       2.620312      1.840998      2.412073
  H       2.224590     -1.671208      3.577572
  H       1.326109     -0.335341      2.819907
  H       3.595235     -1.913109      1.527059
  H      -0.461719     -0.443842     -1.203960
  H       2.859642     -0.384702     -0.369969
  H       1.879529     -1.989768      1.082360
  H       3.148854      0.406158      4.261991
  H       0.542710      0.845324     -2.755569
  H       2.035588      1.193749     -2.648120
  O       1.237782      1.083542     -2.120320
  H      -5.709803      0.866470     -2.000250
39
Coordinates from ORCA-job /home/rudenko/2025/kie/for_orca/c6h5chno2ch3_piperazine/orca/ts_opt/ts_opt E -859.670277654000
  C      -3.356584      1.869486      0.224621
  C      -2.331408      0.997875     -0.137466
  C      -2.523333      0.063260     -1.156451
  C      -3.746238      0.013559     -1.813728
  C      -4.760957      0.903178     -1.468515
  C      -4.568977      1.830876     -0.446925
  H      -3.202299      2.583046      1.023658
  H      -1.372325      1.052203      0.365232
  H      -3.912926     -0.712724     -2.594548
  H      -5.361291      2.520346     -0.183514
  C      -1.405885     -0.905981     -1.473204
  C      -1.572110     -2.255897     -0.806060
  H      -0.747360     -2.924214     -1.050825
  H      -2.515975     -2.720070     -1.091971
  H      -1.579871     -2.084186      0.271759
  N      -1.287312     -1.042154     -2.994488
  O      -0.991117     -0.020658     -3.615130
  O      -1.480212     -2.115874     -3.525874
  N       2.760276     -0.150564      0.613939
  C       2.654511     -1.323071      1.469663
  C       2.316443     -0.844879      2.873455
  N       3.364089      0.067188      3.341255
  C       3.510999      1.228214      2.456164
  C       3.820464      0.752374      1.041296
  H       3.860801      1.611910      0.353612
  H       4.817027      0.261800      1.029076
  H       4.324398      1.852750      2.826336
  H       2.592847      1.843675      2.421092
  H       2.255364     -1.676610      3.560376
  H       1.333152     -0.360969      2.834023
  H       3.590998     -1.901379      1.511451
  H      -0.451916     -0.451052     -1.204512
  H       2.843913     -0.372559     -0.367131
  H       1.874076     -1.979918      1.076546
  H       3.143801      0.385652      4.276963
  H       0.546626      0.832499     -2.794466
  H       2.034133      1.217246     -2.674453
  O       1.229694      1.089654     -2.153875
  H      -5.705513      0.865969     -2.017381
