40
Coordinates from ORCA-job /home/rudenko/2025/kie/for_orca/m-o2nc6h4chno2ch3_piperazine/orca/ts_opt/ts_opt E -1063.539228194060
  C      -4.200638     -0.676182     -1.230411
  C      -2.873746     -0.596982     -0.828215
  C      -1.897064     -1.454207     -1.352418
  C      -2.297260     -2.402771     -2.295146
  C      -3.628547     -2.465540     -2.686134
  C      -4.597596     -1.616256     -2.170469
  H      -4.936348     -0.010175     -0.798312
  H      -2.591299      0.117886     -0.069973
  H      -1.581450     -3.086265     -2.725281
  H      -5.624835     -1.696890     -2.489915
  N      -4.022865     -3.461198     -3.682280
  O      -5.208420     -3.558938     -3.972053
  O      -3.141682     -4.135894     -4.215156
  C      -0.493488     -1.444799     -0.897346
  C       0.136798     -2.710774     -0.403434
  H       0.884766     -2.498741      0.362523
  H       0.636870     -3.279404     -1.197619
  H      -0.634443     -3.348412      0.031004
  N       0.274184     -0.386003     -1.148181
  O       1.540214     -0.428612     -0.905182
  O      -0.219180      0.700618     -1.634103
  H      -0.384989     -0.403470      1.075869
  C       2.985261      3.881303      2.376524
  N       4.147190      3.148209      2.207992
  C       4.114101      2.057248      1.234294
  C       2.882724      1.198914      1.437118
  N       1.653239      2.057940      1.424100
  C       1.716870      3.117832      2.491172
  H       3.070081      4.820704      2.907067
  H       4.992686      3.699244      2.171714
  H       4.999611      1.434248      1.361061
  H       4.116088      2.447650      0.207106
  H       2.757814      0.467091      0.640192
  H       2.897880      0.698931      2.406050
  H       1.548817      2.496332      0.505212
  H       0.847563      3.764894      2.380897
  H       1.625549      2.570342      3.440357
  H      -0.012587     -0.555814      2.564968
  H       0.825546      1.446809      1.566005
  O      -0.307412      0.091133      1.910403
40
Coordinates from ORCA-job /home/rudenko/2025/kie/for_orca/m-o2nc6h4chno2ch3_piperazine/orca/ts_opt/ts_opt E -1063.539223433966
  C      -4.199017     -0.660745     -1.266255
  C      -2.874249     -0.571700     -0.859044
  C      -1.894861     -1.441180     -1.357411
  C      -2.289869     -2.412241     -2.279098
  C      -3.619256     -2.485186     -2.674916
  C      -4.591141     -1.623993     -2.184753
  H      -4.936722      0.016255     -0.855267
  H      -2.595060      0.163666     -0.119095
  H      -1.571693     -3.105709     -2.688900
  H      -5.616682     -1.712478     -2.507626
  N      -4.008263     -3.505004     -3.648611
  O      -5.194057     -3.620335     -3.931110
  O      -3.126138     -4.202268     -4.148962
  C      -0.493538     -1.419094     -0.896287
  C       0.141934     -2.675250     -0.383854
  H       0.883500     -2.449704      0.384218
  H       0.651080     -3.248979     -1.168487
  H      -0.627419     -3.313687      0.052625
  N       0.272526     -0.362035     -1.156516
  O       1.539923     -0.408602     -0.926846
  O      -0.219083      0.721168     -1.651789
  H      -0.422801     -0.346445      1.035559
  C       2.997529      3.842772      2.428035
  N       4.160185      3.122068      2.197327
  C       4.099929      2.060619      1.191691
  C       2.876922      1.195327      1.410035
  N       1.653595      2.054078      1.436994
  C       1.734443      3.069023      2.544318
  H       3.092252      4.762129      2.990579
  H       5.001523      3.678814      2.152047
  H       4.989124      1.435075      1.270034
  H       4.068401      2.483426      0.178013
  H       2.751389      0.471184      0.605060
  H       2.910707      0.688849      2.374980
  H       1.552626      2.527607      0.535514
  H       0.858871      3.713578      2.480706
  H       1.669904      2.483527      3.472608
  H      -0.091152     -0.518554      2.528292
  H       0.813621      1.454308      1.566689
  O      -0.348984      0.139714      1.869504
40
Coordinates from ORCA-job /home/rudenko/2025/kie/for_orca/m-o2nc6h4chno2ch3_piperazine/orca/ts_opt/ts_opt E -1063.539938367671
  C      -4.162218     -0.580569     -1.354945
  C      -2.834738     -0.503237     -0.953530
  C      -1.884240     -1.438494     -1.385209
  C      -2.309350     -2.462738     -2.232290
  C      -3.642458     -2.527276     -2.617879
  C      -4.586508     -1.601138     -2.194679
  H      -4.875494      0.153772     -1.004606
  H      -2.525664      0.292136     -0.289402
  H      -1.613198     -3.206252     -2.589223
  H      -5.614610     -1.681083     -2.512060
  N      -4.064926     -3.607917     -3.509588
  O      -5.249205     -3.684317     -3.813091
  O      -3.203048     -4.345577     -3.978986
  C      -0.479580     -1.413069     -0.938712
  C       0.175461     -2.666526     -0.441329
  H       0.912889     -2.439951      0.328619
  H       0.695819     -3.217866     -1.234171
  H      -0.580435     -3.327278     -0.015530
  N       0.274437     -0.345220     -1.200776
  O       1.543447     -0.380530     -0.980790
  O      -0.232780      0.738432     -1.678822
  H      -0.440840     -0.342674      0.990526
  C       2.987400      3.819231      2.498442
  N       4.154396      3.123315      2.227229
  C       4.091431      2.093133      1.191703
  C       2.882546      1.204312      1.401968
  N       1.650854      2.049567      1.463708
  C       1.736844      3.023919      2.605344
  H       3.079316      4.718360      3.090214
  H       4.986047      3.694669      2.183289
  H       4.990278      1.479381      1.235248
  H       4.037037      2.547168      0.193337
  H       2.760067      0.498532      0.583477
  H       2.935916      0.677109      2.354143
  H       1.544416      2.556874      0.582289
  H       0.852500      3.656823      2.580961
  H       1.695158      2.402361      3.509734
  H      -0.128027     -0.536491      2.490179
  H       0.810079      1.445327      1.577350
  O      -0.369020      0.133783      1.837859
40
Coordinates from ORCA-job /home/rudenko/2025/kie/for_orca/m-o2nc6h4chno2ch3_piperazine/orca/ts_opt/ts_opt E -1063.539280116991
  C      -4.171328     -0.626756     -1.268133
  C      -2.844328     -0.559046     -0.863260
  C      -1.882938     -1.451854     -1.355214
  C      -2.296008     -2.424059     -2.266936
  C      -3.628726     -2.480520     -2.655141
  C      -4.583850     -1.595991     -2.171959
  H      -4.893556      0.073462     -0.869563
  H      -2.545359      0.191901     -0.144508
  H      -1.590941     -3.134429     -2.670936
  H      -5.611486     -1.668672     -2.492599
  N      -4.039057     -3.506812     -3.613959
  O      -5.222406     -3.577572     -3.921566
  O      -3.166983     -4.192614     -4.140514
  C      -0.479468     -1.441752     -0.902564
  C       0.157917     -2.703443     -0.403043
  H       0.902436     -2.485894      0.362734
  H       0.664844     -3.267180     -1.195877
  H      -0.607132     -3.349338      0.029329
  N       0.283617     -0.380581     -1.160000
  O       1.550774     -0.420048     -0.926670
  O      -0.214373      0.704363     -1.645544
  H      -0.403293     -0.387098      1.037174
  C       2.968157      3.854044      2.416983
  N       4.136577      3.141927      2.203144
  C       4.094409      2.075086      1.204911
  C       2.877680      1.198171      1.417304
  N       1.644150      2.045409      1.433220
  C       1.711333      3.070497      2.530652
  H       3.051396      4.777177      2.971982
  H       4.973150      3.706143      2.159993
  H       4.989292      1.460470      1.294490
  H       4.067122      2.491562      0.189264
  H       2.759153      0.473562      0.614770
  H       2.911670      0.692914      2.382088
  H       1.539570      2.510744      0.529071
  H       0.832045      3.706575      2.456598
  H       1.644879      2.491556      3.461546
  H      -0.058687     -0.550372      2.532242
  H       0.811537      1.435329      1.564936
  O      -0.331788      0.103141      1.875555
40
Coordinates from ORCA-job /home/rudenko/2025/kie/for_orca/m-o2nc6h4chno2ch3_piperazine/orca/ts_opt/ts_opt E -1063.540198748666
  C      -4.157795     -0.573107     -1.357221
  C      -2.829524     -0.493012     -0.959183
  C      -1.879180     -1.430475     -1.388086
  C      -2.307203     -2.460670     -2.227102
  C      -3.640982     -2.526948     -2.610015
  C      -4.584037     -1.598133     -2.190696
  H      -4.870611      0.162375     -1.008348
  H      -2.519624      0.305181     -0.299340
  H      -1.612418     -3.206779     -2.581082
  H      -5.612852     -1.680002     -2.505223
  N      -4.065421     -3.612958     -3.494259
  O      -5.250828     -3.692867     -3.792793
  O      -3.206505     -4.361722     -3.951135
  C      -0.474450     -1.404921     -0.944367
  C       0.183396     -2.658888     -0.452177
  H       0.920802     -2.433341      0.318084
  H       0.704905     -3.205899     -1.247205
  H      -0.570451     -3.323050     -0.028319
  N       0.279131     -0.335101     -1.202328
  O       1.547441     -0.369650     -0.979333
  O      -0.227665      0.750223     -1.675837
  H      -0.437622     -0.344738      0.985774
  C       2.982720      3.814335      2.497322
  N       4.148326      3.114869      2.232147
  C       4.087966      2.085133      1.196493
  C       2.875813      1.198852      1.399727
  N       1.644248      2.046345      1.461091
  C       1.729985      3.022605      2.601546
  H       3.075017      4.713981      3.088213
  H       4.981975      3.683671      2.192118
  H       4.985336      1.469636      1.244906
  H       4.039759      2.538983      0.197725
  H       2.751343      0.496760      0.578678
  H       2.926115      0.666548      2.349143
  H       1.536047      2.553307      0.579649
  H       0.847663      3.658133      2.573650
  H       1.683621      2.402274      3.506534
  H      -0.123403     -0.541515      2.483638
  H       0.805799      1.440715      1.574225
  O      -0.366838      0.129847      1.833383
40
Coordinates from ORCA-job /home/rudenko/2025/kie/for_orca/m-o2nc6h4chno2ch3_piperazine/orca/ts_opt/ts_opt E -1063.541463736266
  C      -4.132101     -0.504044     -1.462969
  C      -2.800442     -0.417105     -1.078638
  C      -1.870163     -1.406739     -1.431629
  C      -2.325666     -2.496111     -2.177663
  C      -3.662836     -2.567074     -2.547601
  C      -4.584493     -1.586953     -2.204877
  H      -4.827606      0.273302     -1.175300
  H      -2.469456      0.431497     -0.497768
  H      -1.649177     -3.283845     -2.471386
  H      -5.616419     -1.673575     -2.507609
  N      -4.114394     -3.715221     -3.334977
  O      -5.305188     -3.801468     -3.611051
  O      -3.280867     -4.540884     -3.694576
  C      -0.462363     -1.372073     -1.005079
  C       0.219002     -2.624070     -0.540664
  H       0.951227     -2.400999      0.235137
  H       0.753476     -3.141060     -1.346992
  H      -0.520585     -3.313761     -0.133374
  N       0.280312     -0.289311     -1.252591
  O       1.549253     -0.317770     -1.037384
  O      -0.236950      0.800180     -1.701638
  H      -0.449954     -0.335747      0.939828
  C       2.978470      3.783116      2.571291
  N       4.145478      3.097921      2.279098
  C       4.085077      2.098897      1.214232
  C       2.877116      1.201360      1.395096
  N       1.642090      2.042442      1.487403
  C       1.730952      2.981556      2.658904
  H       3.069992      4.664827      3.188701
  H       4.975900      3.672235      2.250693
  H       4.985743      1.486976      1.240655
  H       4.030363      2.581501      0.229323
  H       2.750786      0.523220      0.554772
  H       2.935190      0.640579      2.327475
  H       1.529077      2.580135      0.624822
  H       0.845088      3.612689      2.658985
  H       1.694541      2.330692      3.542637
  H      -0.146165     -0.567804      2.434450
  H       0.804795      1.432130      1.582211
  O      -0.379104      0.120360      1.798052
40
Coordinates from ORCA-job /home/rudenko/2025/kie/for_orca/m-o2nc6h4chno2ch3_piperazine/orca/ts_opt/ts_opt E -1063.542211084116
  C      -4.100001     -0.446384     -1.511829
  C      -2.762267     -0.369184     -1.147292
  C      -1.856606     -1.395053     -1.462123
  C      -2.345324     -2.509230     -2.149388
  C      -3.688125     -2.569036     -2.499893
  C      -4.585074     -1.554397     -2.194093
  H      -4.774770      0.359941     -1.256231
  H      -2.404651      0.502212     -0.619213
  H      -1.690032     -3.324735     -2.413396
  H      -5.621960     -1.632603     -2.481774
  N      -4.172485     -3.743191     -3.227695
  O      -5.373311     -3.832842     -3.456875
  O      -3.366274     -4.617676     -3.527468
  C      -0.443664     -1.370215     -1.057413
  C       0.248247     -2.632941     -0.640160
  H       0.983084     -2.432020      0.139129
  H       0.782934     -3.116305     -1.466846
  H      -0.483182     -3.342912     -0.254140
  N       0.295535     -0.277740     -1.279639
  O       1.563815     -0.307139     -1.062623
  O      -0.223715      0.822095     -1.698269
  H      -0.409843     -0.397895      0.932934
  C       2.936842      3.794419      2.580903
  N       4.114358      3.114232      2.325490
  C       4.089359      2.108875      1.266062
  C       2.884111      1.202751      1.419460
  N       1.636823      2.030693      1.489839
  C       1.694154      2.984609      2.651113
  H       3.007563      4.684030      3.189583
  H       4.941944      3.693307      2.314474
  H       4.993816      1.504518      1.321328
  H       4.057700      2.584267      0.276686
  H       2.770960      0.531018      0.572953
  H       2.928675      0.634286      2.347755
  H       1.523176      2.556922      0.620684
  H       0.804217      3.609288      2.624513
  H       1.642953      2.343849      3.541496
  H      -0.072647     -0.641498      2.416916
  H       0.812528      1.403123      1.579342
  O      -0.338862      0.048563      1.795699
40
Coordinates from ORCA-job /home/rudenko/2025/kie/for_orca/m-o2nc6h4chno2ch3_piperazine/orca/ts_opt/ts_opt E -1063.541428478835
  C      -4.099253     -0.472837     -1.410425
  C      -2.761687     -0.416514     -1.040947
  C      -1.852619     -1.413748     -1.427303
  C      -2.335384     -2.476940     -2.193662
  C      -3.678071     -2.518029     -2.547074
  C      -4.579464     -1.531781     -2.169523
  H      -4.777217      0.310952     -1.099286
  H      -2.407489      0.416259     -0.451055
  H      -1.676208     -3.268919     -2.513837
  H      -5.616210     -1.594225     -2.461618
  N      -4.157100     -3.641413     -3.354527
  O      -5.360428     -3.734952     -3.568598
  O      -3.345580     -4.488318     -3.713656
  C      -0.439679     -1.411322     -1.017833
  C       0.229441     -2.684988     -0.596291
  H       0.973192     -2.494970      0.177266
  H       0.748151     -3.184312     -1.423737
  H      -0.513955     -3.377581     -0.201474
  N       0.312933     -0.329253     -1.239171
  O       1.579986     -0.367942     -1.012688
  O      -0.193630      0.773440     -1.667766
  H      -0.368439     -0.450368      0.976197
  C       2.905638      3.834406      2.503098
  N       4.089940      3.149812      2.295299
  C       4.088570      2.108074      1.271394
  C       2.885440      1.201522      1.435371
  N       1.631888      2.022896      1.459756
  C       1.664495      3.023062      2.581616
  H       2.961875      4.746737      3.078736
  H       4.915915      3.731040      2.279931
  H       4.994357      1.510359      1.364618
  H       4.073221      2.548329      0.265593
  H       2.786632      0.504542      0.607175
  H       2.916929      0.661454      2.380918
  H       1.522462      2.509769      0.567528
  H       0.773446      3.642804      2.512073
  H       1.597664      2.419355      3.496627
  H      -0.004854     -0.657600      2.460152
  H       0.815520      1.388332      1.566359
  O      -0.300429      0.012870      1.830763
40
Coordinates from ORCA-job /home/rudenko/2025/kie/for_orca/m-o2nc6h4chno2ch3_piperazine/orca/ts_opt/ts_opt E -1063.541885063522
  C      -4.108300     -0.459787     -1.495529
  C      -2.771605     -0.379109     -1.127646
  C      -1.858335     -1.394559     -1.456015
  C      -2.339551     -2.501461     -2.160657
  C      -3.681455     -2.565188     -2.513000
  C      -4.585457     -1.560555     -2.194822
  H      -4.788654      0.338224     -1.228846
  H      -2.420773      0.485652     -0.584735
  H      -1.679342     -3.309390     -2.434878
  H      -5.621591     -1.641703     -2.484357
  N      -4.157178     -3.734550     -3.253926
  O      -5.358742     -3.836228     -3.474281
  O      -3.345807     -4.604553     -3.552747
  C      -0.446265     -1.367895     -1.049812
  C       0.244267     -2.628152     -0.622649
  H       0.980361     -2.421657      0.153943
  H       0.777178     -3.119039     -1.445984
  H      -0.487261     -3.333926     -0.229408
  N       0.296102     -0.277887     -1.276706
  O       1.564017     -0.309248     -1.058151
  O      -0.218968      0.820916     -1.702446
  H      -0.419785     -0.383582      0.930785
  C       2.944751      3.791033      2.577509
  N       4.119590      3.107230      2.318096
  C       4.088287      2.102149      1.258399
  C       2.880479      1.200222      1.415289
  N       1.637154      2.033003      1.487053
  C       1.699343      2.985287      2.649230
  H       3.019843      4.679663      3.187081
  H       4.949048      3.683549      2.305279
  H       4.990685      1.494491      1.310965
  H       4.055647      2.577963      0.269266
  H       2.765149      0.527136      0.569602
  H       2.924125      0.633435      2.344696
  H       1.525626      2.560366      0.618159
  H       0.811384      3.612843      2.624640
  H       1.647540      2.343880      3.539146
  H      -0.091601     -0.623901      2.417911
  H       0.809793      1.409730      1.576932
  O      -0.349700      0.065595      1.792614
40
Coordinates from ORCA-job /home/rudenko/2025/kie/for_orca/m-o2nc6h4chno2ch3_piperazine/orca/ts_opt/ts_opt E -1063.540761164995
  C      -4.143792     -0.525633     -1.442155
  C      -2.813720     -0.438254     -1.052484
  C      -1.875762     -1.413979     -1.424677
  C      -2.322350     -2.488789     -2.197307
  C      -3.658317     -2.561016     -2.570847
  C      -4.587913     -1.595881     -2.207276
  H      -4.844492      0.241949     -1.141120
  H      -2.488643      0.401583     -0.455870
  H      -1.639970     -3.264632     -2.508323
  H      -5.618491     -1.682566     -2.514529
  N      -4.099648     -3.693980     -3.386057
  O      -5.296905     -3.811485     -3.620489
  O      -3.266904     -4.530074     -3.721140
  C      -0.468517     -1.376949     -0.999222
  C       0.214707     -2.625223     -0.527365
  H       0.950666     -2.395639      0.242819
  H       0.745620     -3.148286     -1.332084
  H      -0.522182     -3.312223     -0.110948
  N       0.274440     -0.294693     -1.254518
  O       1.542981     -0.321359     -1.037681
  O      -0.242644      0.791373     -1.710923
  H      -0.465636     -0.322348      0.944712
  C       2.993235      3.787031      2.566158
  N       4.155993      3.093920      2.276449
  C       4.090214      2.092905      1.214043
  C       2.876952      1.202923      1.396501
  N       1.646747      2.051148      1.487307
  C       1.740896      2.993227      2.655869
  H       3.090032      4.669734      3.181249
  H       4.989914      3.663099      2.246823
  H       4.987405      1.476005      1.242427
  H       4.038742      2.573352      0.227912
  H       2.744802      0.524098      0.557602
  H       2.931991      0.643086      2.329627
  H       1.535982      2.587599      0.623840
  H       0.858949      3.629727      2.653787
  H       1.700049      2.345182      3.541420
  H      -0.167868     -0.548089      2.442080
  H       0.806368      1.444622      1.583242
  O      -0.392931      0.138533      1.801149
40
Coordinates from ORCA-job /home/rudenko/2025/kie/for_orca/m-o2nc6h4chno2ch3_piperazine/orca/ts_opt/ts_opt E -1063.541018733889
  C      -4.125446     -0.519715     -1.383198
  C      -2.792285     -0.454285     -0.999941
  C      -1.864669     -1.424962     -1.408103
  C      -2.323151     -2.471326     -2.211367
  C      -3.661499     -2.520858     -2.580517
  C      -4.581697     -1.561524     -2.179857
  H      -4.818821      0.242482     -1.052982
  H      -2.457495      0.362837     -0.377511
  H      -1.648119     -3.241828     -2.550715
  H      -5.614578     -1.630552     -2.483933
  N      -4.115154     -3.621345     -3.432733
  O      -5.313509     -3.718600     -3.671077
  O      -3.286001     -4.436496     -3.823618
  C      -0.455936     -1.412966     -0.984199
  C       0.209626     -2.677013     -0.529329
  H       0.950619     -2.469209      0.242327
  H       0.730676     -3.197572     -1.342121
  H      -0.536880     -3.358270     -0.120645
  N       0.298701     -0.336480     -1.225062
  O       1.565713     -0.375598     -0.999630
  O      -0.205111      0.758211     -1.677169
  H      -0.410491     -0.398133      0.982247
  C       2.943543      3.827356      2.501076
  N       4.119112      3.135760      2.265776
  C       4.089478      2.098874      1.236970
  C       2.882060      1.201586      1.420688
  N       1.638600      2.035492      1.461813
  C       1.697214      3.024746      2.592563
  H       3.017095      4.733945      3.083826
  H       4.948555      3.711478      2.237225
  H       4.992020      1.493308      1.308551
  H       4.057385      2.544756      0.234000
  H       2.771761      0.500923      0.596946
  H       2.922941      0.666793      2.368975
  H       1.530183      2.532574      0.575047
  H       0.809791      3.651697      2.543792
  H       1.641050      2.412895      3.502800
  H      -0.074486     -0.597305      2.474781
  H       0.810328      1.415077      1.571577
  O      -0.341121      0.073250      1.832728
40
Coordinates from ORCA-job /home/rudenko/2025/kie/for_orca/m-o2nc6h4chno2ch3_piperazine/orca/ts_opt/ts_opt E -1063.541700007587
  C      -4.081359     -0.458048     -1.393837
  C      -2.742423     -0.410677     -1.028994
  C      -1.840134     -1.412434     -1.421715
  C      -2.332707     -2.470127     -2.190357
  C      -3.676275     -2.500101     -2.541550
  C      -4.570613     -1.510396     -2.156556
  H      -4.754059      0.327181     -1.074939
  H      -2.382120      0.414978     -0.433270
  H      -1.680198     -3.265045     -2.516685
  H      -5.608605     -1.565160     -2.445717
  N      -4.164134     -3.614472     -3.355710
  O      -5.367641     -3.693503     -3.574498
  O      -3.357487     -4.457488     -3.733881
  C      -0.428427     -1.422524     -1.013446
  C       0.231832     -2.702595     -0.596599
  H       0.973607     -2.521812      0.181040
  H       0.751456     -3.199469     -1.424874
  H      -0.516627     -3.393638     -0.208919
  N       0.335274     -0.345213     -1.226711
  O       1.600764     -0.398641     -0.996174
  O      -0.157057      0.763646     -1.654928
  H      -0.352666     -0.477908      0.982590
  C       2.876389      3.842527      2.478564
  N       4.067261      3.164142      2.287271
  C       4.080453      2.110071      1.276055
  C       2.882891      1.196630      1.442872
  N       1.623881      2.008979      1.446655
  C       1.640509      3.022897      2.556282
  H       2.921682      4.761917      3.043865
  H       4.889155      3.751039      2.270848
  H       4.989743      1.519874      1.382504
  H       4.068939      2.538207      0.265013
  H       2.799854      0.488154      0.622117
  H       2.909666      0.669968      2.396083
  H       1.518537      2.482571      0.546840
  H       0.745426      3.634966      2.472046
  H       1.570561      2.429951      3.478150
  H       0.014487     -0.670545      2.468603
  H       0.810429      1.370374      1.557101
  O      -0.290263     -0.008275      1.834858
40
Coordinates from ORCA-job /home/rudenko/2025/kie/for_orca/m-o2nc6h4chno2ch3_piperazine/orca/ts_opt/ts_opt E -1063.541572088156
  C      -4.056678     -0.453824     -1.317984
  C      -2.715655     -0.432302     -0.958894
  C      -1.824160     -1.424475     -1.396759
  C      -2.328104     -2.444631     -2.206841
  C      -3.673210     -2.448204     -2.553909
  C      -4.557847     -1.469347     -2.121865
  H      -4.721612      0.322322     -0.962657
  H      -2.345895      0.364105     -0.329664
  H      -1.683350     -3.230252     -2.569543
  H      -5.597497     -1.503433     -2.408200
  N      -4.172572     -3.519822     -3.417185
  O      -5.377385     -3.579411     -3.635219
  O      -3.370483     -4.337405     -3.855825
  C      -0.412289     -1.463930     -0.990200
  C       0.225406     -2.759854     -0.587018
  H       0.971250     -2.601573      0.191789
  H       0.734941     -3.257228     -1.421297
  H      -0.535304     -3.441361     -0.206220
  N       0.367248     -0.396138     -1.191772
  O       1.630756     -0.467354     -0.953679
  O      -0.108529      0.721237     -1.617605
  H      -0.296267     -0.556176      1.021326
  C       2.816348      3.877788      2.401901
  N       4.020490      3.210024      2.264768
  C       4.072645      2.121525      1.292166
  C       2.885690      1.195452      1.464332
  N       1.613229      1.985850      1.415641
  C       1.590430      3.043908      2.482638
  H       2.835452      4.818758      2.932095
  H       4.834540      3.807682      2.246790
  H       4.987810      1.549585      1.440224
  H       4.078207      2.513609      0.266605
  H       2.829907      0.461442      0.663549
  H       2.899733      0.698595      2.433562
  H       1.513716      2.417784      0.494845
  H       0.689521      3.639123      2.352316
  H       1.505910      2.488123      3.426259
  H       0.101363     -0.712017      2.504347
  H       0.812494      1.333879      1.540725
  O      -0.240250     -0.072053      1.866457
40
Coordinates from ORCA-job /home/rudenko/2025/kie/for_orca/m-o2nc6h4chno2ch3_piperazine/orca/ts_opt/ts_opt E -1063.542200009284
  C      -4.005340     -0.389001     -1.318086
  C      -2.659936     -0.389241     -0.975652
  C      -1.794933     -1.410170     -1.403198
  C      -2.333028     -2.435978     -2.184656
  C      -3.682156     -2.417357     -2.514305
  C      -4.539608     -1.409682     -2.093934
  H      -4.648517      0.408755     -0.970531
  H      -2.264844      0.411623     -0.368385
  H      -1.711822     -3.244272     -2.538021
  H      -5.583439     -1.426961     -2.366184
  N      -4.215708     -3.498627     -3.344471
  O      -5.423900     -3.534897     -3.549305
  O      -3.436789     -4.342250     -3.775249
  C      -0.381577     -1.475968     -1.011986
  C       0.245088     -2.788496     -0.646214
  H       0.990591     -2.659880      0.138473
  H       0.753223     -3.263710     -1.494063
  H      -0.520938     -3.475823     -0.287613
  N       0.411823     -0.411952     -1.186261
  O       1.672993     -0.505085     -0.944981
  O      -0.047075      0.721085     -1.586428
  H      -0.235772     -0.640390      1.022086
  C       2.738146      3.888300      2.366910
  N       3.957496      3.240307      2.278109
  C       4.057300      2.134982      1.328573
  C       2.884491      1.188631      1.486119
  N       1.596920      1.951140      1.393825
  C       1.526150      3.033403      2.433802
  H       2.725282      4.841139      2.875648
  H       4.760871      3.852441      2.271214
  H       4.978779      1.583949      1.512646
  H       4.083500      2.507559      0.296126
  H       2.861725      0.443659      0.693712
  H       2.883901      0.704260      2.461645
  H       1.505705      2.356402      0.460275
  H       0.618385      3.608223      2.265162
  H       1.425958      2.498628      3.388021
  H       0.185700     -0.780972      2.499899
  H       0.811525      1.281280      1.520003
  O      -0.190171     -0.155055      1.867274
40
Coordinates from ORCA-job /home/rudenko/2025/kie/for_orca/m-o2nc6h4chno2ch3_piperazine/orca/ts_opt/ts_opt E -1063.543038693914
  C      -3.946256     -0.312776     -1.335681
  C      -2.597111     -0.333933     -1.009733
  C      -1.761915     -1.391435     -1.410422
  C      -2.337684     -2.430778     -2.147591
  C      -3.689711     -2.389383     -2.461664
  C      -4.516707     -1.346082     -2.068123
  H      -4.564666      0.512817     -1.008671
  H      -2.174452      0.477675     -0.437117
  H      -1.742868     -3.266719     -2.480798
  H      -5.563866     -1.345981     -2.327653
  N      -4.259772     -3.486387     -3.245815
  O      -5.469775     -3.494763     -3.443935
  O      -3.506401     -4.360645     -3.660354
  C      -0.347639     -1.481548     -1.036766
  C       0.271409     -2.808850     -0.712603
  H       1.014723     -2.709893      0.078543
  H       0.781374     -3.256958     -1.573848
  H      -0.498054     -3.504863     -0.379575
  N       0.459038     -0.420759     -1.180278
  O       1.717836     -0.537508     -0.940126
  O       0.017129      0.728988     -1.547464
  H      -0.180615     -0.722725      1.019526
  C       2.655211      3.888874      2.337769
  N       3.889693      3.265615      2.289136
  C       4.035558      2.148799      1.359218
  C       2.880339      1.178915      1.503271
  N       1.577532      1.910402      1.374643
  C       1.460446      3.009322      2.392363
  H       2.610189      4.850010      2.828761
  H       4.680113      3.894457      2.292012
  H       4.964098      1.620716      1.572853
  H       4.077737      2.506669      0.322141
  H       2.890846      0.426702      0.717559
  H       2.869378      0.703557      2.483100
  H       1.492317      2.293439      0.430810
  H       0.544776      3.561401      2.192904
  H       1.349724      2.489885      3.353880
  H       0.257551     -0.851154      2.493218
  H       0.807498      1.223179      1.501027
  O      -0.147023     -0.238283      1.865483
40
Coordinates from ORCA-job /home/rudenko/2025/kie/for_orca/m-o2nc6h4chno2ch3_piperazine/orca/ts_opt/ts_opt E -1063.544046052143
  C      -3.898229     -0.232573     -1.429574
  C      -2.544987     -0.255492     -1.122028
  C      -1.736155     -1.361470     -1.445213
  C      -2.349175     -2.445392     -2.085025
  C      -3.704062     -2.398816     -2.383167
  C      -4.503095     -1.308328     -2.067324
  H      -4.493657      0.630435     -1.161641
  H      -2.096749      0.589950     -0.624428
  H      -1.779970     -3.319546     -2.358220
  H      -5.553660     -1.305391     -2.312403
  N      -4.308523     -3.544483     -3.065292
  O      -5.518856     -3.534459     -3.262626
  O      -3.579710     -4.465144     -3.418308
  C      -0.320861     -1.456364     -1.090733
  C       0.308665     -2.787826     -0.804893
  H       1.045773     -2.705754     -0.006075
  H       0.830071     -3.202015     -1.675929
  H      -0.454176     -3.502658     -0.498547
  N       0.490317     -0.392421     -1.204973
  O       1.747524     -0.524536     -0.969963
  O       0.057723      0.769674     -1.537564
  H      -0.167845     -0.758107      0.986169
  C       2.608509      3.867012      2.368001
  N       3.851239      3.260014      2.325027
  C       4.019557      2.152810      1.387508
  C       2.874991      1.167423      1.511116
  N       1.564230      1.883599      1.378871
  C       1.425087      2.971379      2.405638
  H       2.546926      4.823549      2.866148
  H       4.633765      3.898548      2.340650
  H       4.952381      1.634310      1.605835
  H       4.067515      2.519865      0.353883
  H       2.902926      0.425569      0.716622
  H       2.861420      0.680342      2.485139
  H       1.480064      2.273042      0.437254
  H       0.503618      3.513134      2.204361
  H       1.314230      2.441614      3.361503
  H       0.265656     -0.903022      2.458659
  H       0.800546      1.187162      1.493547
  O      -0.143024     -0.285629      1.837998
40
Coordinates from ORCA-job /home/rudenko/2025/kie/for_orca/m-o2nc6h4chno2ch3_piperazine/orca/ts_opt/ts_opt E -1063.544293504765
  C      -3.916211     -0.227784     -1.537504
  C      -2.562030     -0.223295     -1.233347
  C      -1.747147     -1.345509     -1.483092
  C      -2.359827     -2.472658     -2.046974
  C      -3.715008     -2.450878     -2.344865
  C      -4.518391     -1.344976     -2.101884
  H      -4.514753      0.648381     -1.324749
  H      -2.117436      0.654270     -0.793061
  H      -1.789224     -3.360890     -2.264919
  H      -5.569390     -1.362563     -2.344386
  N      -4.315852     -3.642324     -2.947078
  O      -5.523478     -3.642482     -3.160988
  O      -3.584467     -4.583024     -3.236176
  C      -0.330518     -1.412981     -1.132342
  C       0.325818     -2.730385     -0.840604
  H       1.057709     -2.629158     -0.039347
  H       0.860065     -3.135058     -1.708159
  H      -0.421170     -3.461314     -0.534056
  N       0.468424     -0.338639     -1.248538
  O       1.726977     -0.459730     -1.017779
  O       0.025571      0.819014     -1.579766
  H      -0.225649     -0.693567      0.940237
  C       2.659022      3.836190      2.449648
  N       3.892580      3.215235      2.364474
  C       4.030384      2.135965      1.390136
  C       2.873240      1.163642      1.500313
  N       1.572636      1.903135      1.408970
  C       1.464715      2.954679      2.476918
  H       2.618678      4.775946      2.980832
  H       4.683855      3.842712      2.387086
  H       4.958766      1.597820      1.577560
  H       4.068293      2.534622      0.367802
  H       2.880065      0.445515      0.684457
  H       2.866244      0.648544      2.459932
  H       1.484748      2.330945      0.484577
  H       0.546975      3.514557      2.311602
  H       1.363774      2.391679      3.414703
  H       0.181394     -0.877675      2.415164
  H       0.796135      1.217992      1.506104
  O      -0.195520     -0.235954      1.799096
40
Coordinates from ORCA-job /home/rudenko/2025/kie/for_orca/m-o2nc6h4chno2ch3_piperazine/orca/ts_opt/ts_opt E -1063.544367807163
  C      -3.942759     -0.242898     -1.620795
  C      -2.589077     -0.210481     -1.316035
  C      -1.761099     -1.334797     -1.512973
  C      -2.364296     -2.492814     -2.024872
  C      -3.719092     -2.497878     -2.324130
  C      -4.533959     -1.390067     -2.133406
  H      -4.549734      0.636519     -1.449238
  H      -2.154470      0.690662     -0.916197
  H      -1.786344     -3.384887     -2.202843
  H      -5.584434     -1.429193     -2.375617
  N      -4.308529     -3.721914     -2.870174
  O      -5.516055     -3.742938     -3.083542
  O      -3.572892     -4.677412     -3.092871
  C      -0.343486     -1.373174     -1.163288
  C       0.337030     -2.674304     -0.852682
  H       1.065498     -2.547279     -0.052214
  H       0.880297     -3.080234     -1.713904
  H      -0.394855     -3.415681     -0.535750
  N       0.441631     -0.288456     -1.290705
  O       1.701952     -0.392942     -1.062784
  O      -0.015824      0.860621     -1.629151
  H      -0.288079     -0.614352      0.889703
  C       2.718373      3.803659      2.525358
  N       3.939247      3.164842      2.399527
  C       4.043145      2.114991      1.389321
  C       2.869565      1.160966      1.485894
  N       1.583395      1.928087      1.433990
  C       1.509149      2.942388      2.540656
  H       2.702805      4.725205      3.088740
  H       4.741672      3.777611      2.429789
  H       4.963936      1.554419      1.545794
  H       4.074036      2.545272      0.379618
  H       2.852384      0.465806      0.650164
  H       2.865343      0.619322      2.430821
  H       1.497168      2.393928      0.528297
  H       0.598959      3.523223      2.409955
  H       1.412711      2.347391      3.458939
  H       0.087096     -0.832920      2.368673
  H       0.791757      1.258120      1.513004
  O      -0.252167     -0.168413      1.754929
40
Coordinates from ORCA-job /home/rudenko/2025/kie/for_orca/m-o2nc6h4chno2ch3_piperazine/orca/ts_opt/ts_opt E -1063.544534260428
  C      -3.944710     -0.234547     -1.725269
  C      -2.589436     -0.179947     -1.431391
  C      -1.759185     -1.315710     -1.551633
  C      -2.369462     -2.506691     -1.978372
  C      -3.725624     -2.531911     -2.268249
  C      -4.540181     -1.413316     -2.152806
  H      -4.550015      0.655493     -1.612100
  H      -2.154271      0.746693     -1.097817
  H      -1.795545     -3.410203     -2.100085
  H      -5.592081     -1.469067     -2.385099
  N      -4.320483     -3.791985     -2.719740
  O      -5.525574     -3.818399     -2.945898
  O      -3.592218     -4.768258     -2.862335
  C      -0.339694     -1.333062     -1.214108
  C       0.364443     -2.620961     -0.898162
  H       1.090225     -2.475656     -0.098565
  H       0.915615     -3.018952     -1.757787
  H      -0.350484     -3.375959     -0.575982
  N       0.437197     -0.239214     -1.342106
  O       1.698414     -0.336015     -1.120181
  O      -0.028983      0.906474     -1.674663
  H      -0.337350     -0.562709      0.828626
  C       2.742693      3.763168      2.600784
  N       3.957730      3.120559      2.442724
  C       4.045470      2.102499      1.398857
  C       2.864875      1.154917      1.474424
  N       1.585956      1.935081      1.453992
  C       1.527603      2.910070      2.596801
  H       2.738566      4.665237      3.195050
  H       4.764778      3.726508      2.485843
  H       4.962990      1.530258      1.530127
  H       4.072019      2.564305      0.403013
  H       2.837777      0.483366      0.619445
  H       2.862310      0.586922      2.403762
  H       1.502770      2.436010      0.566937
  H       0.620278      3.500958      2.494854
  H       1.435199      2.283065      3.493988
  H       0.004666     -0.813530      2.310609
  H       0.784813      1.274095      1.511857
  O      -0.301091     -0.129585      1.700656
40
Coordinates from ORCA-job /home/rudenko/2025/kie/for_orca/m-o2nc6h4chno2ch3_piperazine/orca/ts_opt/ts_opt E -1063.544607728341
  C      -3.953172     -0.237318     -1.823665
  C      -2.597285     -0.158316     -1.537509
  C      -1.760013     -1.296201     -1.586018
  C      -2.370846     -2.513484     -1.936622
  C      -3.727032     -2.561908     -2.219509
  C      -4.546992     -1.441994     -2.172905
  H      -4.560248      0.656987     -1.766760
  H      -2.165668      0.789861     -1.267022
  H      -1.796912     -3.421844     -2.007904
  H      -5.599224     -1.516258     -2.397771
  N      -4.317306     -3.851658     -2.587378
  O      -5.520197     -3.894536     -2.822611
  O      -3.590357     -4.837734     -2.641901
  C      -0.338943     -1.292453     -1.259171
  C       0.385287     -2.566107     -0.928621
  H       1.111001     -2.397905     -0.133639
  H       0.939819     -2.965794     -1.785034
  H      -0.313739     -3.329027     -0.591981
  N       0.429891     -0.190942     -1.395374
  O       1.692158     -0.278158     -1.180348
  O      -0.046368      0.949227     -1.728443
  H      -0.390262     -0.502461      0.771359
  C       2.772725      3.718128      2.674467
  N       3.980033      3.070833      2.480626
  C       4.047533      2.087378      1.402667
  C       2.858174      1.149278      1.458577
  N       1.587983      1.943656      1.474259
  C       1.549930      2.876267      2.653129
  H       2.783281      4.598566      3.300217
  H       4.793081      3.667769      2.535699
  H       4.960559      1.502350      1.505820
  H       4.069270      2.581668      0.422404
  H       2.818840      0.502691      0.584753
  H       2.857923      0.553678      2.370582
  H       1.506914      2.480420      0.608170
  H       0.646808      3.478037      2.582729
  H       1.461563      2.217071      3.527302
  H      -0.083107     -0.782473      2.255877
  H       0.777256      1.293164      1.512265
  O      -0.352358     -0.080458      1.649285
40
Coordinates from ORCA-job /home/rudenko/2025/kie/for_orca/m-o2nc6h4chno2ch3_piperazine/orca/ts_opt/ts_opt E -1063.544680264806
  C      -3.949937     -0.231287     -1.864206
  C      -2.592918     -0.143672     -1.585026
  C      -1.755279     -1.283173     -1.596519
  C      -2.370323     -2.509627     -1.908822
  C      -3.726229     -2.565562     -2.188235
  C      -4.546663     -1.444986     -2.174370
  H      -4.555166      0.665625     -1.834363
  H      -2.160424      0.812548     -1.346940
  H      -1.799604     -3.421292     -1.956556
  H      -5.599410     -1.525337     -2.394504
  N      -4.314364     -3.866267     -2.519383
  O      -5.513966     -3.915544     -2.769397
  O      -3.586516     -4.852882     -2.536752
  C      -0.332938     -1.274803     -1.279459
  C       0.398902     -2.544126     -0.947745
  H       1.128306     -2.368139     -0.157869
  H       0.950261     -2.944194     -1.805878
  H      -0.292285     -3.309889     -0.602290
  N       0.434153     -0.171025     -1.415263
  O       1.697054     -0.258869     -1.208693
  O      -0.044607      0.969823     -1.740969
  H      -0.409589     -0.493841      0.754433
  C       2.772282      3.697773      2.697140
  N       3.978804      3.052228      2.492716
  C       4.043089      2.081153      1.403598
  C       2.853089      1.143454      1.451053
  N       1.583436      1.938094      1.478942
  C       1.549084      2.856709      2.669164
  H       2.784948      4.570961      3.332920
  H       4.792434      3.647904      2.552938
  H       4.955828      1.494203      1.498107
  H       4.063297      2.586538      0.428960
  H       2.813513      0.507231      0.570351
  H       2.854433      0.536612      2.355758
  H       1.500635      2.485488      0.619440
  H       0.645975      3.459607      2.608095
  H       1.462700      2.187432      3.535746
  H      -0.112178     -0.781871      2.238902
  H       0.771563      1.288174      1.511642
  O      -0.371390     -0.075171      1.633335
40
Coordinates from ORCA-job /home/rudenko/2025/kie/for_orca/m-o2nc6h4chno2ch3_piperazine/orca/ts_opt/ts_opt E -1063.544780941877
  C      -3.936139     -0.219821     -1.927460
  C      -2.576872     -0.119852     -1.662388
  C      -1.738881     -1.259232     -1.618818
  C      -2.361343     -2.497863     -1.867749
  C      -3.718388     -2.565470     -2.135164
  C      -4.538916     -1.445146     -2.171579
  H      -4.537958      0.679874     -1.938815
  H      -2.142387      0.846642     -1.476200
  H      -1.796677     -3.414022     -1.876320
  H      -5.593585     -1.534349     -2.378590
  N      -4.307728     -3.881293     -2.400531
  O      -5.505490     -3.940788     -2.656071
  O      -3.585731     -4.870648     -2.344677
  C      -0.314528     -1.244101     -1.317064
  C       0.427175     -2.506490     -0.978604
  H       1.166961     -2.314814     -0.202419
  H       0.967477     -2.915505     -1.839391
  H      -0.252020     -3.272010     -0.610175
  N       0.448747     -0.136214     -1.453481
  O       1.713329     -0.221820     -1.262908
  O      -0.036997      1.005369     -1.765077
  H      -0.445986     -0.482586      0.721837
  C       2.763743      3.659046      2.733269
  N       3.969297      3.016883      2.513246
  C       4.030083      2.068158      1.404662
  C       2.839188      1.130829      1.434339
  N       1.569930      1.924606      1.482720
  C       1.540055      2.819445      2.691556
  H       2.778614      4.519456      3.386163
  H       4.783667      3.610346      2.584122
  H       4.942211      1.478174      1.485279
  H       4.049392      2.593304      0.440464
  H       2.800685      0.514168      0.539736
  H       2.842179      0.502904      2.324688
  H       1.483553      2.488983      0.634664
  H       0.637150      3.423943      2.644757
  H       1.455365      2.133283      3.544889
  H      -0.167865     -0.780705      2.208147
  H       0.757343      1.274930      1.506537
  O      -0.408655     -0.067616      1.602407
40
Coordinates from ORCA-job /home/rudenko/2025/kie/for_orca/m-o2nc6h4chno2ch3_piperazine/orca/ts_opt/ts_opt E -1063.544800782900
  C      -3.907803     -0.190036     -1.929553
  C      -2.545707     -0.102372     -1.675959
  C      -1.720253     -1.251299     -1.621881
  C      -2.360400     -2.486026     -1.848669
  C      -3.720123     -2.540499     -2.105981
  C      -4.527260     -1.410898     -2.152768
  H      -4.498803      0.716687     -1.948875
  H      -2.098785      0.860832     -1.505743
  H      -1.807377     -3.409251     -1.849713
  H      -5.584344     -1.489926     -2.351217
  N      -4.328844     -3.852048     -2.347860
  O      -5.528836     -3.898540     -2.595894
  O      -3.621665     -4.851179     -2.277512
  C      -0.293921     -1.248819     -1.332166
  C       0.445666     -2.520233     -1.023878
  H       1.192172     -2.345629     -0.250136
  H       0.978350     -2.914234     -1.896288
  H      -0.232953     -3.290601     -0.664821
  N       0.476363     -0.142934     -1.446742
  O       1.740662     -0.242284     -1.262407
  O       0.000210      1.009346     -1.731188
  H      -0.419354     -0.543155      0.730705
  C       2.713970      3.665233      2.713248
  N       3.930729      3.037749      2.513919
  C       4.016654      2.078901      1.415760
  C       2.839256      1.124368      1.441651
  N       1.557448      1.898351      1.471745
  C       1.503142      2.807548      2.668774
  H       2.709370      4.533341      3.356046
  H       4.735943      3.643326      2.587351
  H       4.936215      1.502930      1.511735
  H       4.038605      2.594748      0.446618
  H       2.818988      0.503071      0.550134
  H       2.842911      0.502040      2.335822
  H       1.466317      2.448417      0.614774
  H       0.592194      3.398371      2.605646
  H       1.419534      2.130746      3.529723
  H      -0.125639     -0.834470      2.214881
  H       0.754808      1.236152      1.500328
  O      -0.387442     -0.127725      1.610388
40
Coordinates from ORCA-job /home/rudenko/2025/kie/for_orca/m-o2nc6h4chno2ch3_piperazine/orca/ts_opt/ts_opt E -1063.544875076932
  C      -3.873479     -0.160769     -1.931098
  C      -2.508900     -0.087019     -1.686436
  C      -1.697067     -1.245132     -1.619285
  C      -2.354976     -2.474439     -1.826834
  C      -3.717091     -2.515079     -2.073329
  C      -4.510510     -1.376197     -2.131286
  H      -4.452148      0.753626     -1.960948
  H      -2.049080      0.872759     -1.531709
  H      -1.815260     -3.405203     -1.821373
  H      -5.569940     -1.444436     -2.320643
  N      -4.344942     -3.822249     -2.290068
  O      -5.538825     -3.853588     -2.568113
  O      -3.649895     -4.829493     -2.214140
  C      -0.267676     -1.253823     -1.342376
  C       0.469793     -2.530170     -1.047049
  H       1.236934     -2.357488     -0.293579
  H       0.977160     -2.931714     -1.931041
  H      -0.203308     -3.295034     -0.667047
  N       0.504921     -0.148233     -1.448335
  O       1.770667     -0.251388     -1.277067
  O       0.027394      1.009030     -1.710365
  H      -0.411719     -0.591081      0.735063
  C       2.668301      3.660110      2.701007
  N       3.894016      3.048276      2.508806
  C       3.996727      2.089084      1.412498
  C       2.832869      1.117667      1.434834
  N       1.539317      1.872536      1.461484
  C       1.469554      2.786041      2.654571
  H       2.649225      4.530108      3.341024
  H       4.690782      3.664736      2.584109
  H       4.923785      1.525893      1.512235
  H       4.014883      2.603920      0.442728
  H       2.825512      0.497672      0.541691
  H       2.843005      0.494073      2.328055
  H       1.438694      2.415895      0.601357
  H       0.550993      3.364334      2.586098
  H       1.391892      2.111436      3.517854
  H      -0.113602     -0.872180      2.220562
  H       0.746581      1.199012      1.495105
  O      -0.384583     -0.171495      1.613038
40
Coordinates from ORCA-job /home/rudenko/2025/kie/for_orca/m-o2nc6h4chno2ch3_piperazine/orca/ts_opt/ts_opt E -1063.544889243491
  C      -3.913372     -0.201877     -1.950081
  C      -2.551481     -0.101989     -1.698650
  C      -1.718192     -1.244015     -1.629424
  C      -2.351009     -2.485488     -1.839682
  C      -3.710720     -2.552741     -2.092983
  C      -4.525719     -1.429293     -2.154751
  H      -4.509392      0.701245     -1.981269
  H      -2.111271      0.866554     -1.540944
  H      -1.793433     -3.405973     -1.829291
  H      -5.582820     -1.517953     -2.348792
  N      -4.311409     -3.872228     -2.313207
  O      -5.504272     -3.927591     -2.591463
  O      -3.597533     -4.865620     -2.230432
  C      -0.290943     -1.230135     -1.341243
  C       0.453038     -2.491899     -1.004718
  H       1.211623     -2.292619     -0.249134
  H       0.971026     -2.914308     -1.872766
  H      -0.218783     -3.250734     -0.609863
  N       0.472915     -0.121812     -1.475525
  O       1.738897     -0.210030     -1.298926
  O      -0.014020      1.023698     -1.770476
  H      -0.463241     -0.499914      0.706376
  C       2.736174      3.638734      2.741071
  N       3.945392      3.002954      2.523069
  C       4.014885      2.062650      1.407947
  C       2.828360      1.119254      1.424680
  N       1.554404      1.905217      1.475868
  C       1.516557      2.794152      2.689073
  H       2.744151      4.495523      3.398882
  H       4.756943      3.599322      2.601848
  H       4.929263      1.476039      1.487819
  H       4.035952      2.595132      0.447787
  H       2.797436      0.512353      0.522972
  H       2.831378      0.481552      2.308061
  H       1.464237      2.472010      0.629869
  H       0.611215      3.394987      2.641649
  H       1.431131      2.103287      3.538578
  H      -0.193646     -0.795825      2.194546
  H       0.745294      1.250723      1.497594
  O      -0.429014     -0.083343      1.585930
40
Coordinates from ORCA-job /home/rudenko/2025/kie/for_orca/m-o2nc6h4chno2ch3_piperazine/orca/ts_opt/ts_opt E -1063.544678392137
  C      -3.936964     -0.226646     -1.887859
  C      -2.578332     -0.138337     -1.617272
  C      -1.744960     -1.280798     -1.605254
  C      -2.366933     -2.511099     -1.891316
  C      -3.724312     -2.567457     -2.162918
  C      -4.540912     -1.443759     -2.168457
  H      -4.537612      0.673749     -1.873680
  H      -2.141026      0.821389     -1.401591
  H      -1.801844     -3.426422     -1.925367
  H      -5.595252     -1.524271     -2.380427
  N      -4.319373     -3.872643     -2.464767
  O      -5.516092     -3.918523     -2.728528
  O      -3.595114     -4.861932     -2.470602
  C      -0.321805     -1.267567     -1.295514
  C       0.420271     -2.528287     -0.951368
  H       1.150352     -2.336388     -0.165934
  H       0.972436     -2.934348     -1.806094
  H      -0.262327     -3.295700     -0.593573
  N       0.436545     -0.158775     -1.440596
  O       1.701423     -0.236224     -1.244729
  O      -0.055022      0.976365     -1.767360
  H      -0.434468     -0.481575      0.735464
  C       2.770488      3.678487      2.717745
  N       3.975701      3.034119      2.502319
  C       4.035842      2.076453      1.401274
  C       2.844649      1.139867      1.439678
  N       1.576082      1.935181      1.481199
  C       1.546164      2.839494      2.682719
  H       2.785897      4.544045      3.363843
  H       4.790249      3.627911      2.568105
  H       4.947972      1.487059      1.486038
  H       4.054418      2.593984      0.432947
  H       2.803214      0.515597      0.550496
  H       2.847579      0.520313      2.335769
  H       1.491297      2.492994      0.628838
  H       0.643665      3.444232      2.631096
  H       1.460971      2.160082      3.541463
  H      -0.150143     -0.773329      2.221430
  H       0.763265      1.286023      1.508576
  O      -0.395991     -0.063264      1.614210
40
Coordinates from ORCA-job /home/rudenko/2025/kie/for_orca/m-o2nc6h4chno2ch3_piperazine/orca/ts_opt/ts_opt E -1063.544954824182
  C      -3.895755     -0.183598     -1.917854
  C      -2.533366     -0.100756     -1.663731
  C      -1.711002     -1.251542     -1.616116
  C      -2.353072     -2.483589     -1.849808
  C      -3.713474     -2.533929     -2.104564
  C      -4.518062     -1.402147     -2.145021
  H      -4.484306      0.724785     -1.933463
  H      -2.083967      0.860760     -1.488488
  H      -1.801971     -3.408030     -1.856810
  H      -5.575648     -1.477972     -2.341910
  N      -4.326471     -3.843101     -2.348764
  O      -5.523366     -3.883735     -2.612215
  O      -3.623275     -4.845032     -2.277703
  C      -0.283421     -1.251529     -1.328352
  C       0.452231     -2.523080     -1.010768
  H       1.216568     -2.339576     -0.257098
  H       0.962150     -2.939672     -1.886462
  H      -0.224778     -3.280647     -0.622195
  N       0.485355     -0.145997     -1.451960
  O       1.751236     -0.241082     -1.275295
  O       0.003486      1.004467     -1.736166
  H      -0.431136     -0.546683      0.729350
  C       2.705472      3.660223      2.710376
  N       3.922891      3.034670      2.508974
  C       4.008913      2.079071      1.407997
  C       2.833424      1.122053      1.432735
  N       1.549904      1.893416      1.466813
  C       1.495773      2.801134      2.665086
  H       2.700046      4.527026      3.354943
  H       4.727251      3.641316      2.582934
  H       4.929604      1.504387      1.500892
  H       4.028513      2.597751      0.440318
  H       2.813101      0.503274      0.538850
  H       2.839604      0.496975      2.324977
  H       1.455374      2.444113      0.610730
  H       0.584041      3.390880      2.603541
  H       1.413578      2.122882      3.525071
  H      -0.144050     -0.830753      2.216665
  H       0.748927      1.229499      1.497261
  O      -0.400323     -0.126231      1.607228
40
Coordinates from ORCA-job /home/rudenko/2025/kie/for_orca/m-o2nc6h4chno2ch3_piperazine/orca/ts_opt/ts_opt E -1063.545129741532
  C      -3.848322     -0.134466     -1.908662
  C      -2.482411     -0.070538     -1.667884
  C      -1.677850     -1.234205     -1.609421
  C      -2.344309     -2.458359     -1.818697
  C      -3.707454     -2.489263     -2.060656
  C      -4.493524     -1.344963     -2.112141
  H      -4.421089      0.783771     -1.933494
  H      -2.016050      0.885394     -1.510314
  H      -1.810437     -3.392740     -1.817968
  H      -5.553986     -1.405808     -2.298392
  N      -4.344753     -3.791406     -2.278878
  O      -5.537628     -3.813523     -2.561974
  O      -3.660550     -4.804880     -2.188094
  C      -0.246879     -1.257454     -1.339912
  C       0.475340     -2.546002     -1.061630
  H       1.270738     -2.384086     -0.336200
  H       0.943480     -2.963809     -1.959926
  H      -0.200208     -3.295349     -0.654809
  N       0.536255     -0.158710     -1.436480
  O       1.802232     -0.275732     -1.276429
  O       0.068134      1.007268     -1.676388
  H      -0.399162     -0.640419      0.743908
  C       2.624952      3.663387      2.673986
  N       3.859218      3.063824      2.498322
  C       3.981274      2.096188      1.411429
  C       2.829586      1.110237      1.434054
  N       1.525966      1.848128      1.445921
  C       1.437096      2.774707      2.627524
  H       2.590265      4.539679      3.304698
  H       4.648087      3.690441      2.573442
  H       4.914360      1.545192      1.522548
  H       3.999903      2.602546      0.437246
  H       2.835922      0.484586      0.544727
  H       2.841770      0.493488      2.331960
  H       1.421004      2.378178      0.578029
  H       0.512408      3.341340      2.545561
  H       1.360587      2.109047      3.497898
  H      -0.097394     -0.906358      2.231667
  H       0.741757      1.164770      1.486442
  O      -0.378328     -0.214102      1.618987
40
Coordinates from ORCA-job /home/rudenko/2025/kie/for_orca/m-o2nc6h4chno2ch3_piperazine/orca/ts_opt/ts_opt E -1063.545153026353
  C      -3.841833     -0.138330     -1.954833
  C      -2.475307     -0.060803     -1.720909
  C      -1.665584     -1.218118     -1.624116
  C      -2.328780     -2.451238     -1.791542
  C      -3.692374     -2.495637     -2.026926
  C      -4.483837     -1.356880     -2.114367
  H      -4.417046      0.777132     -2.008989
  H      -2.012323      0.902104     -1.597821
  H      -1.793191     -3.384077     -1.763128
  H      -5.544908     -1.427900     -2.293137
  N      -4.325358     -3.807409     -2.197468
  O      -5.512620     -3.842998     -2.501468
  O      -3.643531     -4.815297     -2.047083
  C      -0.234098     -1.228997     -1.361309
  C       0.496066     -2.507747     -1.058319
  H       1.314981     -2.317866     -0.367339
  H       0.932736     -2.962186     -1.954877
  H      -0.164731     -3.240152     -0.599368
  N       0.540647     -0.125613     -1.475433
  O       1.809051     -0.229940     -1.332201
  O       0.057433      1.034017     -1.716287
  H      -0.455593     -0.602315      0.706025
  C       2.636099      3.623058      2.713408
  N       3.864575      3.018656      2.515071
  C       3.971783      2.076984      1.404216
  C       2.812820      1.099398      1.410440
  N       1.514853      1.845934      1.449128
  C       1.441235      2.744798      2.653470
  H       2.612200      4.484156      3.365209
  H       4.658657      3.637386      2.599967
  H       4.901292      1.516321      1.495285
  H       3.987916      2.606872      0.442546
  H       2.809969      0.495505      0.506238
  H       2.826309      0.460280      2.292650
  H       1.407586      2.397958      0.595410
  H       0.520347      3.320101      2.591164
  H       1.365140      2.059069      3.508138
  H      -0.182559     -0.877473      2.197617
  H       0.725123      1.168031      1.479594
  O      -0.433145     -0.176786      1.581345
40
Coordinates from ORCA-job /home/rudenko/2025/kie/for_orca/m-o2nc6h4chno2ch3_piperazine/orca/ts_opt/ts_opt E -1063.545207613823
  C      -3.844451     -0.146573     -2.000006
  C      -2.477637     -0.047961     -1.774472
  C      -1.655696     -1.193779     -1.644173
  C      -2.309203     -2.437875     -1.764978
  C      -3.673278     -2.502952     -1.990621
  C      -4.476052     -1.375449     -2.114693
  H      -4.427994      0.761542     -2.082054
  H      -2.024048      0.922535     -1.685104
  H      -1.765788     -3.365089     -1.705973
  H      -5.537468     -1.462413     -2.284132
  N      -4.294841     -3.825997     -2.107527
  O      -5.478028     -3.884728     -2.423401
  O      -3.610921     -4.820027     -1.889902
  C      -0.222905     -1.191521     -1.389006
  C       0.508430     -2.464210     -1.065170
  H       1.355165     -2.253838     -0.415670
  H       0.903870     -2.959981     -1.959118
  H      -0.140352     -3.171448     -0.551514
  N       0.550930     -0.088490     -1.521478
  O       1.820653     -0.189318     -1.393616
  O       0.064185      1.069088     -1.763815
  H      -0.511632     -0.559815      0.662490
  C       2.647650      3.581282      2.751959
  N       3.869508      2.968243      2.539392
  C       3.965853      2.050975      1.407342
  C       2.797055      1.085302      1.392535
  N       1.506579      1.843724      1.450109
  C       1.443561      2.717369      2.673832
  H       2.633242      4.427968      3.422642
  H       4.670115      3.576509      2.637424
  H       4.889604      1.478823      1.484476
  H       3.986602      2.602421      0.457948
  H       2.787699      0.502069      0.474169
  H       2.804908      0.425574      2.259587
  H       1.403069      2.415374      0.609010
  H       0.528693      3.303450      2.624711
  H       1.360660      2.014192      3.513547
  H      -0.269356     -0.843343      2.158271
  H       0.709858      1.173350      1.468293
  O      -0.488240     -0.134982      1.538685
40
Coordinates from ORCA-job /home/rudenko/2025/kie/for_orca/m-o2nc6h4chno2ch3_piperazine/orca/ts_opt/ts_opt E -1063.545227606874
  C      -3.813854     -0.128919     -2.026741
  C      -2.445487     -0.032411     -1.810156
  C      -1.630208     -1.179192     -1.650617
  C      -2.291963     -2.422660     -1.732151
  C      -3.657556     -2.485204     -1.947777
  C      -4.453837     -1.356631     -2.101675
  H      -4.391690      0.780322     -2.133184
  H      -1.984742      0.937561     -1.751505
  H      -1.754546     -3.351269     -1.649608
  H      -5.516771     -1.441734     -2.262344
  N      -4.288323     -3.807154     -2.018595
  O      -5.466235     -3.870290     -2.352796
  O      -3.618370     -4.795433     -1.739852
  C      -0.196084     -1.178352     -1.408096
  C       0.535426     -2.451314     -1.084103
  H       1.421646     -2.231888     -0.494281
  H       0.867790     -2.986228     -1.981455
  H      -0.092519     -3.129680     -0.508625
  N       0.574065     -0.073479     -1.550857
  O       1.846180     -0.168270     -1.448300
  O       0.075603      1.081948     -1.778713
  H      -0.539329     -0.571062      0.637230
  C       2.618346      3.550906      2.769169
  N       3.843535      2.947254      2.548605
  C       3.944686      2.048113      1.402542
  C       2.782168      1.075211      1.373577
  N       1.486552      1.823795      1.444094
  C       1.419105      2.681636      2.678927
  H       2.599062      4.387982      3.451704
  H       4.640782      3.558412      2.655591
  H       4.872032      1.480578      1.470156
  H       3.961157      2.614259      0.461760
  H       2.776445      0.507190      0.445449
  H       2.794986      0.401688      2.229854
  H       1.376116      2.404475      0.610277
  H       0.500909      3.263084      2.637275
  H       1.339961      1.967216      3.509502
  H      -0.311245     -0.853699      2.135375
  H       0.694501      1.147725      1.457667
  O      -0.518294     -0.144483      1.512674
40
Coordinates from ORCA-job /home/rudenko/2025/kie/for_orca/m-o2nc6h4chno2ch3_piperazine/orca/ts_opt/ts_opt E -1063.545190704187
  C      -3.814933     -0.132030     -2.054024
  C      -2.446284     -0.017162     -1.846914
  C      -1.619663     -1.152794     -1.662313
  C      -2.271641     -2.403450     -1.703771
  C      -3.637391     -2.483807     -1.911058
  C      -4.444140     -1.367116     -2.092937
  H      -4.401675      0.768737     -2.181837
  H      -1.994728      0.957433     -1.815477
  H      -1.725027     -3.324411     -1.595994
  H      -5.507086     -1.466121     -2.245977
  N      -4.255713     -3.812974     -1.941793
  O      -5.426841     -3.899944     -2.294084
  O      -3.578949     -4.784275     -1.622470
  C      -0.183173     -1.145109     -1.429613
  C       0.542050     -2.419822     -1.100868
  H       1.464966     -2.196981     -0.573075
  H       0.807743     -2.996934     -1.994456
  H      -0.066415     -3.062302     -0.464630
  N       0.592508     -0.045378     -1.586676
  O       1.865056     -0.147658     -1.502628
  O       0.101099      1.113656     -1.809484
  H      -0.582014     -0.548236      0.612402
  C       2.617528      3.519844      2.788726
  N       3.838476      2.908005      2.566888
  C       3.937098      2.023447      1.409369
  C       2.767651      1.059594      1.363392
  N       1.476463      1.815637      1.440929
  C       1.411475      2.661766      2.684140
  H       2.602308      4.349191      3.480744
  H       4.640385      3.510953      2.684968
  H       4.859950      1.448138      1.472734
  H       3.961083      2.601902      0.476288
  H       2.761150      0.505797      0.426449
  H       2.773065      0.373640      2.209767
  H       1.369655      2.404655      0.612650
  H       0.498220      3.251090      2.644752
  H       1.322987      1.939681      3.507120
  H      -0.375135     -0.830784      2.113715
  H       0.680750      1.143485      1.448277
  O      -0.560860     -0.119364      1.486768
40
Coordinates from ORCA-job /home/rudenko/2025/kie/for_orca/m-o2nc6h4chno2ch3_piperazine/orca/ts_opt/ts_opt E -1063.545164278627
  C      -3.792036     -0.127270     -2.063681
  C      -2.423413     -0.017810     -1.855534
  C      -1.604731     -1.155941     -1.658426
  C      -2.260645     -2.404790     -1.688785
  C      -3.626331     -2.479896     -1.899650
  C      -4.426525     -1.360371     -2.092410
  H      -4.374545      0.774696     -2.201609
  H      -1.965165      0.955278     -1.833758
  H      -1.716955     -3.325782     -1.570927
  H      -5.489549     -1.455708     -2.247814
  N      -4.250937     -3.806083     -1.924976
  O      -5.421278     -3.889531     -2.280863
  O      -3.584133     -4.776430     -1.582797
  C      -0.168790     -1.145487     -1.428816
  C       0.560127     -2.415950     -1.090253
  H       1.517645     -2.184471     -0.634407
  H       0.756277     -3.038478     -1.971361
  H      -0.016256     -3.018848     -0.387522
  N       0.593075     -0.040124     -1.609923
  O       1.868450     -0.124739     -1.547568
  O       0.079040      1.108290     -1.837195
  H      -0.611400     -0.535211      0.608997
  C       2.614891      3.500485      2.804637
  N       3.833647      2.890696      2.565216
  C       3.922749      2.022779      1.394382
  C       2.753195      1.059325      1.345000
  N       1.462081      1.813482      1.445234
  C       1.407466      2.644375      2.699145
  H       2.605839      4.320676      3.507588
  H       4.636788      3.491593      2.685160
  H       4.846285      1.447031      1.441765
  H       3.938516      2.614519      0.469503
  H       2.739419      0.519067      0.399848
  H       2.766078      0.361470      2.181425
  H       1.346490      2.412649      0.625644
  H       0.494141      3.234351      2.674072
  H       1.325155      1.912453      3.514045
  H      -0.415048     -0.815499      2.112419
  H       0.668548      1.138876      1.451889
  O      -0.588165     -0.103671      1.482305
40
Coordinates from ORCA-job /home/rudenko/2025/kie/for_orca/m-o2nc6h4chno2ch3_piperazine/orca/ts_opt/ts_opt E -1063.545383519524
  C      -3.764270     -0.089139     -2.032450
  C      -2.393447      0.008001     -1.831717
  C      -1.582712     -1.138315     -1.643165
  C      -2.251050     -2.380749     -1.673661
  C      -3.618273     -2.443172     -1.878381
  C      -4.409754     -1.316282     -2.062489
  H      -4.339864      0.818133     -2.164539
  H      -1.927407      0.976308     -1.809429
  H      -1.714733     -3.306873     -1.561519
  H      -5.474288     -1.402001     -2.213309
  N      -4.254061     -3.763755     -1.908244
  O      -5.426827     -3.835353     -2.258618
  O      -3.595880     -4.740864     -1.568461
  C      -0.143837     -1.150055     -1.426447
  C       0.565333     -2.442618     -1.134046
  H       1.546297     -2.241869     -0.715945
  H       0.707165     -3.057699     -2.030635
  H       0.002331     -3.041050     -0.416064
  N       0.636907     -0.053961     -1.577392
  O       1.911122     -0.164299     -1.527441
  O       0.146448      1.112300     -1.760917
  H      -0.579133     -0.618580      0.635618
  C       2.551552      3.515982      2.758159
  N       3.784223      2.923585      2.549138
  C       3.904008      2.034415      1.397227
  C       2.753663      1.047586      1.352186
  N       1.446346      1.775670      1.423875
  C       1.361874      2.634988      2.656627
  H       2.517641      4.351186      3.442432
  H       4.574709      3.541595      2.666630
  H       4.837431      1.477215      1.467181
  H       3.920164      2.607929      0.460982
  H       2.762361      0.495064      0.415722
  H       2.770976      0.364090      2.200201
  H       1.322901      2.348830      0.586584
  H       0.438346      3.207224      2.606737
  H       1.282624      1.920892      3.487552
  H      -0.368690     -0.880697      2.139166
  H       0.665390      1.086044      1.445018
  O      -0.565586     -0.179707      1.503834
40
Coordinates from ORCA-job /home/rudenko/2025/kie/for_orca/m-o2nc6h4chno2ch3_piperazine/orca/ts_opt/ts_opt E -1063.545332662661
  C      -3.753209     -0.081279     -2.032734
  C      -2.381931      0.023355     -1.838474
  C      -1.566237     -1.118580     -1.642419
  C      -2.230586     -2.363484     -1.652909
  C      -3.598262     -2.433202     -1.852543
  C      -4.393855     -1.311350     -2.047817
  H      -4.333550      0.821988     -2.171350
  H      -1.919913      0.993108     -1.827541
  H      -1.689235     -3.285169     -1.527010
  H      -5.458598     -1.402735     -2.193826
  N      -4.229260     -3.756336     -1.865654
  O      -5.399557     -3.837874     -2.222042
  O      -3.561159     -4.729251     -1.533255
  C      -0.125738     -1.131878     -1.432251
  C       0.570528     -2.431980     -1.145049
  H       1.582292     -2.243191     -0.803914
  H       0.629479     -3.080972     -2.026782
  H       0.042125     -2.990802     -0.369261
  N       0.661905     -0.041596     -1.589810
  O       1.936421     -0.159144     -1.556645
  O       0.179526      1.129580     -1.762162
  H      -0.607176     -0.613728      0.627491
  C       2.537548      3.498432      2.756879
  N       3.769463      2.903579      2.550117
  C       3.890343      2.018746      1.394954
  C       2.738630      1.033655      1.343038
  N       1.431553      1.762331      1.416390
  C       1.346369      2.620054      2.650224
  H       2.503512      4.331793      3.443450
  H       4.561015      3.519398      2.671933
  H       4.822758      1.459826      1.464596
  H       3.909286      2.596144      0.461156
  H       2.749587      0.487916      0.402358
  H       2.753733      0.345324      2.187167
  H       1.306952      2.335225      0.578715
  H       0.424080      3.194185      2.599033
  H       1.263681      1.904938      3.479964
  H      -0.415295     -0.869518      2.134720
  H       0.650404      1.072711      1.438117
  O      -0.597624     -0.170218      1.493141
40
Coordinates from ORCA-job /home/rudenko/2025/kie/for_orca/m-o2nc6h4chno2ch3_piperazine/orca/ts_opt/ts_opt E -1063.545344353966
  C      -3.777340     -0.097316     -2.027178
  C      -2.407135      0.007909     -1.825692
  C      -1.589168     -1.134386     -1.642970
  C      -2.249571     -2.380603     -1.677305
  C      -3.616326     -2.451189     -1.883073
  C      -4.414582     -1.328670     -2.063772
  H      -4.359334      0.806607     -2.154144
  H      -1.947927      0.978775     -1.797877
  H      -1.706421     -3.303287     -1.566195
  H      -5.478468     -1.420635     -2.215299
  N      -4.243394     -3.775819     -1.918661
  O      -5.412390     -3.855164     -2.279803
  O      -3.571079     -4.752798     -1.607307
  C      -0.150195     -1.143176     -1.423061
  C       0.553700     -2.436968     -1.126001
  H       1.534871     -2.238414     -0.707630
  H       0.692849     -3.055588     -2.020520
  H      -0.013461     -3.030502     -0.406595
  N       0.634250     -0.050122     -1.577127
  O       1.908134     -0.165191     -1.524033
  O       0.151261      1.118356     -1.766012
  H      -0.585742     -0.600436      0.635520
  C       2.565412      3.517095      2.757475
  N       3.794640      2.916947      2.549965
  C       3.909937      2.025402      1.399377
  C       2.753602      1.045522      1.354816
  N       1.450633      1.781900      1.424557
  C       1.370454      2.643174      2.656282
  H       2.536185      4.353337      3.440743
  H       4.588786      3.530288      2.667235
  H       4.839940      1.462695      1.470762
  H       3.930199      2.597592      0.462394
  H       2.759591      0.491650      0.418663
  H       2.766041      0.363169      2.203891
  H       1.331424      2.354946      0.586251
  H       0.450387      3.220870      2.605133
  H       1.286499      1.930640      3.488085
  H      -0.380367     -0.862553      2.140133
  H       0.665765      1.096972      1.445313
  O      -0.571659     -0.161030      1.503661
40
Coordinates from ORCA-job /home/rudenko/2025/kie/for_orca/m-o2nc6h4chno2ch3_piperazine/orca/ts_opt/ts_opt E -1063.545280942215
  C      -3.813553     -0.137910     -2.041616
  C      -2.446283     -0.017959     -1.829369
  C      -1.615910     -1.151852     -1.654114
  C      -2.259281     -2.406102     -1.705734
  C      -3.623952     -2.491606     -1.920778
  C      -4.434624     -1.377001     -2.094887
  H      -4.406507      0.759696     -2.162297
  H      -1.999100      0.958472     -1.788099
  H      -1.704366     -3.322141     -1.599951
  H      -5.496341     -1.480551     -2.254174
  N      -4.235292     -3.823071     -1.971795
  O      -5.411811     -3.909149     -2.306167
  O      -3.554619     -4.794689     -1.661925
  C      -0.179064     -1.140168     -1.419167
  C       0.538633     -2.416672     -1.083114
  H       1.500509     -2.194668     -0.631868
  H       0.722230     -3.041657     -1.965037
  H      -0.042977     -3.012532     -0.377798
  N       0.592175     -0.042369     -1.602158
  O       1.866968     -0.139614     -1.532010
  O       0.095554      1.111659     -1.837637
  H      -0.609170     -0.516568      0.617399
  C       2.631553      3.512586      2.793959
  N       3.846531      2.891496      2.564462
  C       3.933472      2.012699      1.401447
  C       2.756564      1.058020      1.356232
  N       1.471249      1.822876      1.444976
  C       1.417949      2.664681      2.691306
  H       2.626200      4.338720      3.489950
  H       4.653823      3.487242      2.682392
  H       4.852398      1.430420      1.457441
  H       3.957171      2.596283      0.471595
  H       2.741321      0.510426      0.415782
  H       2.761035      0.367743      2.198969
  H       1.363912      2.415464      0.619412
  H       0.509269      3.261344      2.657601
  H       1.327050      1.940521      3.512200
  H      -0.417765     -0.794393      2.121586
  H       0.672637      1.153891      1.453553
  O      -0.587587     -0.083568      1.489433
40
Coordinates from ORCA-job /home/rudenko/2025/kie/for_orca/m-o2nc6h4chno2ch3_piperazine/orca/ts_opt/ts_opt E -1063.545365139085
  C      -3.822421     -0.141544     -2.015695
  C      -2.455410     -0.033233     -1.796563
  C      -1.631086     -1.174400     -1.646659
  C      -2.278507     -2.424272     -1.733039
  C      -3.643105     -2.498608     -1.953315
  C      -4.448499     -1.376296     -2.101718
  H      -4.411260      0.761339     -2.115155
  H      -2.003485      0.940381     -1.729127
  H      -1.727555     -3.344934     -1.649870
  H      -5.510137     -1.471103     -2.266345
  N      -4.260255     -3.825769     -2.036843
  O      -5.438018     -3.898672     -2.369986
  O      -3.576957     -4.809355     -1.774045
  C      -0.196715     -1.165833     -1.400911
  C       0.525523     -2.440122     -1.064733
  H       1.453739     -2.216940     -0.547391
  H       0.777807     -3.029080     -1.954604
  H      -0.084446     -3.070759     -0.417251
  N       0.570934     -0.064968     -1.577297
  O       1.845344     -0.156704     -1.489956
  O       0.069229      1.084506     -1.824507
  H      -0.571686     -0.524868      0.629328
  C       2.641075      3.540259      2.781013
  N       3.857842      2.920989      2.556082
  C       3.946827      2.029715      1.402685
  C       2.772015      1.072102      1.368817
  N       1.485956      1.836307      1.447058
  C       1.429745      2.688061      2.686321
  H       2.633746      4.372778      3.469342
  H       4.663393      3.520366      2.667371
  H       4.867191      1.450348      1.464874
  H       3.968880      2.603064      0.466438
  H       2.756409      0.511670      0.436266
  H       2.777534      0.393098      2.220733
  H       1.381792      2.422953      0.616788
  H       0.519400      3.281915      2.647817
  H       1.341108      1.970422      3.513167
  H      -0.363979     -0.805190      2.130559
  H       0.687985      1.166978      1.457607
  O      -0.549954     -0.094602      1.502743
40
Coordinates from ORCA-job /home/rudenko/2025/kie/for_orca/m-o2nc6h4chno2ch3_piperazine/orca/ts_opt/ts_opt E -1063.545336760355
  C      -3.857414     -0.163414     -1.997462
  C      -2.491788     -0.045832     -1.773734
  C      -1.655255     -1.181611     -1.648571
  C      -2.290491     -2.435246     -1.762450
  C      -3.654348     -2.519021     -1.984935
  C      -4.470800     -1.402109     -2.110529
  H      -4.455749      0.735138     -2.077683
  H      -2.050908      0.930001     -1.683726
  H      -1.729884     -3.351820     -1.697569
  H      -5.531273     -1.504070     -2.278407
  N      -4.259221     -3.849972     -2.093326
  O      -5.442812     -3.926295     -2.404223
  O      -3.564721     -4.832824     -1.858419
  C      -0.220923     -1.167892     -1.393593
  C       0.501333     -2.440639     -1.053451
  H       1.398127     -2.219978     -0.480869
  H       0.811270     -3.000109     -1.944009
  H      -0.132427     -3.096599     -0.456999
  N       0.553816     -0.072065     -1.570758
  O       1.825910     -0.171631     -1.461911
  O       0.067045      1.078640     -1.839925
  H      -0.552464     -0.498810      0.625466
  C       2.670987      3.559197      2.778678
  N       3.882787      2.926699      2.563968
  C       3.969200      2.024555      1.418745
  C       2.784749      1.078898      1.387574
  N       1.506964      1.858295      1.450346
  C       1.451637      2.718377      2.683667
  H       2.668586      4.396607      3.461061
  H       4.693549      3.519100      2.674679
  H       4.883411      1.436738      1.491226
  H       4.002061      2.589300      0.477599
  H       2.766667      0.507489      0.461638
  H       2.778321      0.409284      2.246923
  H       1.417553      2.441708      0.616142
  H       0.547510      3.321000      2.636257
  H       1.351447      2.007123      3.514677
  H      -0.343197     -0.784125      2.125985
  H       0.701960      1.197429      1.456814
  O      -0.531214     -0.071517      1.501102
40
Coordinates from ORCA-job /home/rudenko/2025/kie/for_orca/m-o2nc6h4chno2ch3_piperazine/orca/ts_opt/ts_opt E -1063.545344490196
  C      -3.852278     -0.168562     -1.996568
  C      -2.486496     -0.055191     -1.773184
  C      -1.653854     -1.193038     -1.648938
  C      -2.291223     -2.445504     -1.763508
  C      -3.655340     -2.525307     -1.986553
  C      -4.468586     -1.405813     -2.111115
  H      -4.448442      0.731513     -2.075562
  H      -2.042053      0.920040     -1.682289
  H      -1.732626     -3.363120     -1.698481
  H      -5.529229     -1.504742     -2.279412
  N      -4.264022     -3.854423     -2.096721
  O      -5.447059     -3.927286     -2.410662
  O      -3.566947     -4.840106     -1.882479
  C      -0.220845     -1.175071     -1.391778
  C       0.507718     -2.440797     -1.037254
  H       1.407552     -2.209278     -0.474042
  H       0.813315     -3.012597     -1.921465
  H      -0.120274     -3.089734     -0.427096
  N       0.543821     -0.075512     -1.587095
  O       1.817227     -0.160996     -1.480071
  O       0.042069      1.064489     -1.874087
  H      -0.565008     -0.473339      0.614829
  C       2.682413      3.553016      2.793422
  N       3.890973      2.918767      2.565779
  C       3.968221      2.025825      1.412691
  C       2.780441      1.084459      1.381181
  N       1.506126      1.868520      1.456200
  C       1.459629      2.717175      2.697673
  H       2.686770      4.384213      3.483375
  H       4.704194      3.507701      2.676931
  H       4.881074      1.434756      1.475200
  H       3.997350      2.598173      0.476008
  H       2.755102      0.518306      0.452240
  H       2.776186      0.409438      2.236274
  H       1.416976      2.461077      0.628556
  H       0.557253      3.323162      2.660370
  H       1.361404      1.998701      3.522686
  H      -0.366859     -0.762217      2.115992
  H       0.698991      1.210224      1.458026
  O      -0.543665     -0.046919      1.490926
40
Coordinates from ORCA-job /home/rudenko/2025/kie/for_orca/m-o2nc6h4chno2ch3_piperazine/orca/ts_opt/ts_opt E -1063.545417299732
  C      -3.820618     -0.135668     -2.000000
  C      -2.453266     -0.030998     -1.781177
  C      -1.629856     -1.174507     -1.642782
  C      -2.279426     -2.422585     -1.738611
  C      -3.644482     -2.493274     -1.957615
  C      -4.448428     -1.368708     -2.095726
  H      -4.408555      0.768687     -2.091112
  H      -2.000316      0.941182     -1.705649
  H      -1.729602     -3.344580     -1.662783
  H      -5.510363     -1.460681     -2.260106
  N      -4.264173     -3.818623     -2.050059
  O      -5.445776     -3.886045     -2.370418
  O      -3.581557     -4.805827     -1.799253
  C      -0.194777     -1.171306     -1.397212
  C       0.523638     -2.450764     -1.072900
  H       1.452475     -2.235495     -0.552890
  H       0.774881     -3.031233     -1.968485
  H      -0.088417     -3.086107     -0.432154
  N       0.578272     -0.073257     -1.566847
  O       1.851987     -0.172587     -1.477734
  O       0.084922      1.081004     -1.808686
  H      -0.557384     -0.540526      0.635256
  C       2.630381      3.550601      2.767455
  N       3.849892      2.933146      2.552633
  C       3.946326      2.033024      1.406718
  C       2.774546      1.071523      1.375604
  N       1.485764      1.832380      1.442522
  C       1.422011      2.693983      2.674501
  H       2.617708      4.388411      3.449256
  H       4.653209      3.535768      2.662522
  H       4.868199      1.457038      1.477259
  H       3.970454      2.599003      0.466051
  H       2.764454      0.504135      0.447133
  H       2.778724      0.399161      2.232777
  H       1.382594      2.411235      0.606475
  H       0.510098      3.284800      2.627558
  H       1.332149      1.982835      3.506813
  H      -0.346374     -0.816874      2.137238
  H       0.689848      1.160629      1.455908
  O      -0.539162     -0.108902      1.508516
40
Coordinates from ORCA-job /home/rudenko/2025/kie/for_orca/m-o2nc6h4chno2ch3_piperazine/orca/ts_opt/ts_opt E -1063.545459534429
  C      -3.801651     -0.117528     -1.995023
  C      -2.433039     -0.019303     -1.780993
  C      -1.615312     -1.166809     -1.640224
  C      -2.272620     -2.411656     -1.727014
  C      -3.638751     -2.475707     -1.940749
  C      -4.436814     -1.347402     -2.082424
  H      -4.384792      0.789662     -2.088808
  H      -1.974552      0.950578     -1.711169
  H      -1.728009     -3.336384     -1.646943
  H      -5.499794     -1.434219     -2.242715
  N      -4.266129     -3.798128     -2.022854
  O      -5.447860     -3.861337     -2.343484
  O      -3.587365     -4.787648     -1.770664
  C      -0.179317     -1.172897     -1.401171
  C       0.531277     -2.460731     -1.093286
  H       1.477087     -2.255738     -0.601283
  H       0.747599     -3.047412     -1.993910
  H      -0.070617     -3.086326     -0.433001
  N       0.598986     -0.076908     -1.561161
  O       1.872892     -0.183244     -1.482091
  O       0.109830      1.083151     -1.782883
  H      -0.551810     -0.573158      0.639021
  C       2.601036      3.550745      2.754890
  N       3.826482      2.942474      2.547788
  C       3.934422      2.038399      1.406048
  C       2.771291      1.066346      1.374695
  N       1.475365      1.815455      1.434933
  C       1.400424      2.683351      2.661806
  H       2.578641      4.391645      3.432647
  H       4.624320      3.552337      2.657782
  H       4.860972      1.470650      1.481963
  H       3.956746      2.600627      0.463096
  H       2.769857      0.496931      0.447294
  H       2.778855      0.396503      2.233794
  H       1.367592      2.387434      0.594838
  H       0.483685      3.266110      2.608575
  H       1.313717      1.976000      3.497712
  H      -0.339817     -0.843381      2.141938
  H       0.685412      1.136489      1.452071
  O      -0.538240     -0.138970      1.510959
40
Coordinates from ORCA-job /home/rudenko/2025/kie/for_orca/m-o2nc6h4chno2ch3_piperazine/orca/ts_opt/ts_opt E -1063.545546261830
  C      -3.770710     -0.091120     -1.992614
  C      -2.400534      0.003923     -1.786876
  C      -1.586845     -1.145646     -1.634887
  C      -2.251474     -2.388397     -1.699532
  C      -3.618884     -2.448809     -1.905314
  C      -4.412349     -1.318894     -2.058823
  H      -4.349997      0.817373     -2.097254
  H      -1.937492      0.972147     -1.733729
  H      -1.710988     -3.314355     -1.607160
  H      -5.476493     -1.402881     -2.213020
  N      -4.253141     -3.769224     -1.965373
  O      -5.439827     -3.829973     -2.267593
  O      -3.579319     -4.758143     -1.698128
  C      -0.148594     -1.162469     -1.408541
  C       0.550044     -2.462049     -1.124793
  H       1.531019     -2.271186     -0.702514
  H       0.686903     -3.070361     -2.026585
  H      -0.021457     -3.061006     -0.413387
  N       0.638393     -0.071022     -1.559088
  O       1.912457     -0.188071     -1.501960
  O       0.157138      1.098056     -1.747491
  H      -0.561483     -0.604313      0.632995
  C       2.556126      3.536331      2.739809
  N       3.787985      2.937926      2.542210
  C       3.910037      2.033068      1.402619
  C       2.756254      1.049886      1.366192
  N       1.452277      1.785396      1.420093
  C       1.364008      2.657763      2.642916
  H       2.522310      4.378676      3.415279
  H       4.579847      3.554944      2.655375
  H       4.841386      1.473997      1.483966
  H       3.931882      2.594105      0.458963
  H       2.766578      0.483141      0.437657
  H       2.766292      0.379403      2.224743
  H       1.338618      2.350240      0.575270
  H       0.442302      3.231923      2.582837
  H       1.279404      1.953054      3.481274
  H      -0.363348     -0.866440      2.139188
  H       0.668957      1.098993      1.440880
  O      -0.557283     -0.165985      1.502393
40
Coordinates from ORCA-job /home/rudenko/2025/kie/for_orca/m-o2nc6h4chno2ch3_piperazine/orca/ts_opt/ts_opt E -1063.545384090839
  C      -3.768198     -0.100577     -2.010342
  C      -2.397875      0.007841     -1.812611
  C      -1.575381     -1.133357     -1.644623
  C      -2.231923     -2.381718     -1.681134
  C      -3.599726     -2.455358     -1.880025
  C      -4.401419     -1.333855     -2.051374
  H      -4.354545      0.801698     -2.128531
  H      -1.941759      0.979957     -1.778639
  H      -1.684282     -3.301545     -1.569812
  H      -5.465539     -1.427947     -2.199565
  N      -4.225624     -3.780934     -1.912746
  O      -5.416223     -3.853973     -2.196526
  O      -3.538834     -4.762462     -1.651461
  C      -0.136257     -1.140270     -1.422674
  C       0.563360     -2.435726     -1.124489
  H       1.564118     -2.239784     -0.755516
  H       0.650312     -3.077726     -2.008901
  H       0.018538     -3.003244     -0.366694
  N       0.648250     -0.049640     -1.594795
  O       1.923110     -0.161678     -1.548694
  O       0.163414      1.116193     -1.793709
  H      -0.612800     -0.548888      0.600052
  C       2.569009      3.505445      2.765690
  N       3.792968      2.895227      2.555285
  C       3.901423      2.007155      1.401192
  C       2.735664      1.038721      1.352443
  N       1.440806      1.789136      1.421522
  C       1.366037      2.642984      2.658114
  H       2.547324      4.336979      3.454966
  H       4.592577      3.500643      2.676343
  H       4.826360      1.436037      1.471156
  H       3.927409      2.582832      0.466461
  H       2.737994      0.486227      0.415044
  H       2.739485      0.354971      2.200516
  H       1.331587      2.368354      0.585831
  H       0.451090      3.228970      2.609508
  H       1.275038      1.926328      3.485603
  H      -0.452517     -0.816929      2.110373
  H       0.649335      1.111006      1.432751
  O      -0.612306     -0.111094      1.470010
40
Coordinates from ORCA-job /home/rudenko/2025/kie/for_orca/m-o2nc6h4chno2ch3_piperazine/orca/ts_opt/ts_opt E -1063.545439197366
  C      -3.790533     -0.111811     -1.999990
  C      -2.421305     -0.006408     -1.793096
  C      -1.599019     -1.149829     -1.641945
  C      -2.253657     -2.397576     -1.707935
  C      -3.620417     -2.468526     -1.915311
  C      -4.422350     -1.344569     -2.068528
  H      -4.377019      0.792188     -2.103358
  H      -1.966034      0.965302     -1.737981
  H      -1.705623     -3.319244     -1.614923
  H      -5.485652     -1.436636     -2.223751
  N      -4.244597     -3.793685     -1.977499
  O      -5.430919     -3.863123     -2.279440
  O      -3.560791     -4.778641     -1.721191
  C      -0.161376     -1.155799     -1.410051
  C       0.542481     -2.447807     -1.106332
  H       1.514565     -2.247054     -0.667911
  H       0.700580     -3.060105     -2.001948
  H      -0.037133     -3.046997     -0.401778
  N       0.621793     -0.063734     -1.576353
  O       1.895917     -0.175124     -1.510977
  O       0.138119      1.100104     -1.789355
  H      -0.578934     -0.558265      0.620088
  C       2.589097      3.530910      2.759017
  N       3.813173      2.919739      2.552170
  C       3.921218      2.021740      1.405695
  C       2.755448      1.053033      1.366236
  N       1.461051      1.804782      1.428402
  C       1.386219      2.667400      2.658946
  H       2.567632      4.368154      3.441324
  H       4.612601      3.526514      2.667496
  H       4.846143      1.451193      1.480346
  H       3.946944      2.589225      0.465978
  H       2.755804      0.490378      0.434953
  H       2.759399      0.377728      2.221069
  H       1.354390      2.379559      0.589496
  H       0.471192      3.252910      2.606434
  H       1.295746      1.956667      3.491571
  H      -0.391900     -0.827565      2.126850
  H       0.669555      1.127377      1.442453
  O      -0.571806     -0.122408      1.491129
40
Coordinates from ORCA-job /home/rudenko/2025/kie/for_orca/m-o2nc6h4chno2ch3_piperazine/orca/ts_opt/ts_opt E -1063.545397681997
  C      -3.806788     -0.134696     -2.008755
  C      -2.438596     -0.022812     -1.799349
  C      -1.611076     -1.162081     -1.649211
  C      -2.258141     -2.413457     -1.719373
  C      -3.624270     -2.491101     -1.929324
  C      -4.431715     -1.370816     -2.081020
  H      -4.398037      0.766327     -2.110758
  H      -1.988030      0.951488     -1.741376
  H      -1.704999     -3.332032     -1.627567
  H      -5.494235     -1.468113     -2.238284
  N      -4.242051     -3.819082     -1.995244
  O      -5.431632     -3.892382     -2.283096
  O      -3.552052     -4.801928     -1.747577
  C      -0.174652     -1.155121     -1.411335
  C       0.539921     -2.434939     -1.081412
  H       1.500463     -2.217999     -0.625018
  H       0.725344     -3.052693     -1.968049
  H      -0.046035     -3.035346     -0.383671
  N       0.598027     -0.059509     -1.601089
  O       1.872946     -0.156463     -1.526900
  O       0.101806      1.092190     -1.848011
  H      -0.597029     -0.502593      0.601208
  C       2.626207      3.523241      2.786420
  N       3.841510      2.900086      2.563919
  C       3.932210      2.013932      1.406664
  C       2.754042      1.060696      1.363932
  N       1.470538      1.829466      1.440085
  C       1.411928      2.676185      2.682344
  H       2.619296      4.351890      3.479409
  H       4.648913      3.495685      2.681776
  H       4.850480      1.431392      1.469794
  H       3.959671      2.591593      0.473203
  H       2.741101      0.504432      0.428593
  H       2.753553      0.378178      2.213034
  H       1.371558      2.418782      0.610978
  H       0.504019      3.273639      2.642252
  H       1.316821      1.955620      3.505914
  H      -0.424351     -0.782501      2.107740
  H       0.670569      1.161763      1.444523
  O      -0.587233     -0.070919      1.474632
40
Coordinates from ORCA-job /home/rudenko/2025/kie/for_orca/m-o2nc6h4chno2ch3_piperazine/orca/ts_opt/ts_opt E -1063.545409977346
  C      -3.815545     -0.141814     -2.003465
  C      -2.447350     -0.030535     -1.793981
  C      -1.619328     -1.170100     -1.650412
  C      -2.265499     -2.421371     -1.728292
  C      -3.631750     -2.498588     -1.937821
  C      -4.439821     -1.377821     -2.082807
  H      -4.407338      0.759480     -2.099712
  H      -1.997178      0.943757     -1.729927
  H      -1.711719     -3.340216     -1.643058
  H      -5.502329     -1.474732     -2.240160
  N      -4.248944     -3.826530     -2.010366
  O      -5.437582     -3.899332     -2.302378
  O      -3.554507     -4.811231     -1.783362
  C      -0.183322     -1.161303     -1.410173
  C       0.533529     -2.438291     -1.073857
  H       1.481443     -2.218042     -0.592813
  H       0.745821     -3.046654     -1.961036
  H      -0.063462     -3.049031     -0.395251
  N       0.588192     -0.065843     -1.604931
  O       1.862824     -0.160594     -1.522891
  O       0.090787      1.082174     -1.865648
  H      -0.588826     -0.492297      0.596656
  C       2.637394      3.529715      2.791090
  N       3.851292      2.904048      2.567947
  C       3.940125      2.017251      1.410994
  C       2.759561      1.067041      1.369193
  N       1.478517      1.839981      1.443500
  C       1.420936      2.685815      2.686340
  H       2.632496      4.358121      3.484413
  H       4.660035      3.497825      2.685825
  H       4.857028      1.432611      1.474590
  H       3.969005      2.594344      0.477217
  H       2.744196      0.507904      0.435587
  H       2.757111      0.386378      2.219793
  H       1.384278      2.431300      0.615474
  H       0.514598      3.285669      2.646143
  H       1.323552      1.964887      3.509348
  H      -0.415642     -0.775838      2.102201
  H       0.676760      1.174446      1.444839
  O      -0.579337     -0.062584      1.471192
40
Coordinates from ORCA-job /home/rudenko/2025/kie/for_orca/m-o2nc6h4chno2ch3_piperazine/orca/ts_opt/ts_opt E -1063.545390071751
  C      -3.781506     -0.112016     -2.008717
  C      -2.412118     -0.008931     -1.802634
  C      -1.593223     -1.153278     -1.643635
  C      -2.250834     -2.400178     -1.700133
  C      -3.617818     -2.468754     -1.906472
  C      -4.416603     -1.343647     -2.068422
  H      -4.365584      0.792818     -2.118100
  H      -1.953663      0.962427     -1.753844
  H      -1.705564     -3.322367     -1.599647
  H      -5.480161     -1.433885     -2.222620
  N      -4.245694     -3.792736     -1.956959
  O      -5.430296     -3.862366     -2.265482
  O      -3.559299     -4.778557     -1.711077
  C      -0.156297     -1.156178     -1.412623
  C       0.553371     -2.443929     -1.102569
  H       1.531841     -2.236538     -0.682382
  H       0.697355     -3.068293     -1.992242
  H      -0.014662     -3.034221     -0.381227
  N       0.618878     -0.059818     -1.586898
  O       1.894344     -0.161415     -1.528095
  O       0.122256      1.098149     -1.802337
  H      -0.596768     -0.545423      0.612076
  C       2.591698      3.521233      2.769670
  N       3.814194      2.910128      2.553472
  C       3.916512      2.019898      1.400409
  C       2.749327      1.053006      1.358723
  N       1.456557      1.806243      1.430956
  C       1.387320      2.660023      2.667868
  H       2.573968      4.353522      3.458159
  H       4.614840      3.515107      2.669876
  H       4.840984      1.447660      1.467471
  H       3.939264      2.593837      0.464518
  H       2.745207      0.496658      0.423369
  H       2.755531      0.371871      2.208870
  H       1.348253      2.387376      0.597292
  H       0.472791      3.246985      2.623017
  H       1.299090      1.943313      3.495624
  H      -0.418497     -0.817271      2.119213
  H       0.663802      1.129558      1.442326
  O      -0.588796     -0.110008      1.483209
40
Coordinates from ORCA-job /home/rudenko/2025/kie/for_orca/m-o2nc6h4chno2ch3_piperazine/orca/ts_opt/ts_opt E -1063.545304294506
  C      -3.772098     -0.113003     -2.033186
  C      -2.402615      0.001233     -1.833264
  C      -1.577468     -1.135891     -1.651731
  C      -2.230526     -2.386655     -1.676660
  C      -3.597641     -2.465908     -1.877558
  C      -4.401941     -1.348375     -2.062605
  H      -4.360566      0.786416     -2.162101
  H      -1.948991      0.975119     -1.807748
  H      -1.680953     -3.303764     -1.554750
  H      -5.465465     -1.446847     -2.212200
  N      -4.219970     -3.793507     -1.896736
  O      -5.409742     -3.873046     -2.182220
  O      -3.529923     -4.770573     -1.627406
  C      -0.138852     -1.134145     -1.429418
  C       0.567983     -2.422418     -1.115986
  H       1.571637     -2.216962     -0.760379
  H       0.648425     -3.079048     -1.990175
  H       0.032645     -2.979071     -0.343635
  N       0.636847     -0.039107     -1.613179
  O       1.912858     -0.140452     -1.569495
  O       0.140314      1.119728     -1.822810
  H      -0.642359     -0.516538      0.591276
  C       2.589575      3.491870      2.788095
  N       3.808291      2.876747      2.562115
  C       3.903505      2.000862      1.397543
  C       2.731329      1.040436      1.345511
  N       1.442339      1.799080      1.431193
  C       1.380411      2.638426      2.678284
  H       2.577680      4.315542      3.486983
  H       4.612423      3.475853      2.684535
  H       4.825166      1.423112      1.455288
  H       3.927280      2.586664      0.469049
  H       2.723896      0.497342      0.401986
  H       2.735925      0.347548      2.186068
  H       1.333898      2.390207      0.604773
  H       0.468910      3.230672      2.642432
  H       1.290034      1.912367      3.497626
  H      -0.491969     -0.790052      2.101403
  H       0.646040      1.126263      1.437146
  O      -0.636332     -0.080127      1.461936
40
Coordinates from ORCA-job /home/rudenko/2025/kie/for_orca/m-o2nc6h4chno2ch3_piperazine/orca/ts_opt/ts_opt E -1063.545355394233
  C      -3.801997     -0.135477     -2.020572
  C      -2.433560     -0.017561     -1.815877
  C      -1.602677     -1.153095     -1.653911
  C      -2.247576     -2.406730     -1.705688
  C      -3.613975     -2.490159     -1.911092
  C      -4.424323     -1.373778     -2.075469
  H      -4.395629      0.762788     -2.132638
  H      -1.985501      0.958251     -1.770679
  H      -1.692156     -3.322762     -1.602311
  H      -5.486959     -1.475482     -2.229088
  N      -4.228928     -3.820416     -1.957930
  O      -5.419241     -3.900256     -2.241188
  O      -3.533522     -4.799226     -1.709501
  C      -0.165228     -1.143655     -1.421511
  C       0.547240     -2.423838     -1.088804
  H       1.522810     -2.207291     -0.666023
  H       0.698617     -3.060092     -1.968771
  H      -0.023382     -3.005777     -0.362732
  N       0.608010     -0.049290     -1.618478
  O       1.883341     -0.146497     -1.552533
  O       0.111747      1.102349     -1.864605
  H      -0.621908     -0.484458      0.586641
  C       2.625775      3.507587      2.797679
  N       3.838739      2.881604      2.570323
  C       3.925793      2.003336      1.406785
  C       2.744349      1.054426      1.357779
  N       1.463585      1.827188      1.440300
  C       1.408378      2.665720      2.688155
  H       2.622123      4.331326      3.496557
  H       4.648323      3.473444      2.692056
  H       4.842103      1.417246      1.465371
  H       3.954762      2.587457      0.477384
  H       2.729388      0.504881      0.418067
  H       2.742003      0.365711      2.201832
  H       1.366151      2.422309      0.615476
  H       0.502609      3.266706      2.652390
  H       1.310874      1.939952      3.506900
  H      -0.467042     -0.765805      2.094984
  H       0.661316      1.161819      1.440665
  O      -0.614431     -0.052454      1.460057
40
Coordinates from ORCA-job /home/rudenko/2025/kie/for_orca/m-o2nc6h4chno2ch3_piperazine/orca/ts_opt/ts_opt E -1063.545364804884
  C      -3.821264     -0.153076     -2.002709
  C      -2.453123     -0.038405     -1.795313
  C      -1.622116     -1.175776     -1.654251
  C      -2.264321     -2.428961     -1.732723
  C      -3.630712     -2.509754     -1.940598
  C      -4.441976     -1.390879     -2.082650
  H      -4.415884      0.746564     -2.096825
  H      -2.005234      0.937235     -1.730819
  H      -1.707309     -3.345968     -1.649377
  H      -5.504395     -1.490566     -2.238829
  N      -4.244850     -3.839073     -2.014511
  O      -5.437542     -3.913224     -2.289306
  O      -3.546082     -4.823088     -1.798298
  C      -0.186373     -1.160520     -1.412826
  C       0.534159     -2.431116     -1.060436
  H       1.478514     -2.202658     -0.576126
  H       0.754155     -3.046602     -1.940927
  H      -0.064414     -3.038094     -0.379972
  N       0.580812     -0.065607     -1.626983
  O       1.855681     -0.152673     -1.540833
  O       0.077301      1.073765     -1.912116
  H      -0.598428     -0.454183      0.575472
  C       2.654308      3.521764      2.808770
  N       3.862963      2.888865      2.577461
  C       3.943308      2.010813      1.413166
  C       2.755162      1.070474      1.366940
  N       1.480934      1.854003      1.447865
  C       1.430824      2.688654      2.698399
  H       2.657289      4.343771      3.509667
  H       4.676433      3.475355      2.699100
  H       4.855923      1.418900      1.470648
  H       3.974877      2.595028      0.483906
  H       2.733046      0.515184      0.431192
  H       2.748497      0.385338      2.213947
  H       1.393620      2.454823      0.626027
  H       0.529323      3.296146      2.664548
  H       1.328412      1.961133      3.514958
  H      -0.443162     -0.744621      2.081620
  H       0.674254      1.194327      1.441060
  O      -0.592610     -0.027301      1.451685
40
Coordinates from ORCA-job /home/rudenko/2025/kie/for_orca/m-o2nc6h4chno2ch3_piperazine/orca/ts_opt/ts_opt E -1063.545314909738
  C      -3.798833     -0.142274     -2.023787
  C      -2.429920     -0.025455     -1.822866
  C      -1.600307     -1.161139     -1.658926
  C      -2.246106     -2.414624     -1.704894
  C      -3.613147     -2.497123     -1.906782
  C      -4.422514     -1.380189     -2.073040
  H      -4.391746      0.756232     -2.137584
  H      -1.980042      0.950456     -1.782097
  H      -1.691435     -3.330643     -1.599298
  H      -5.485550     -1.481187     -2.224114
  N      -4.230198     -3.826655     -1.947539
  O      -5.424510     -3.904558     -2.214187
  O      -3.531198     -4.807161     -1.716859
  C      -0.163238     -1.146460     -1.427291
  C       0.555780     -2.419437     -1.080267
  H       1.530880     -2.193722     -0.661144
  H       0.709426     -3.064727     -1.953288
  H      -0.011127     -2.995928     -0.347133
  N       0.602328     -0.050229     -1.642209
  O       1.878406     -0.136726     -1.574608
  O       0.095131      1.091836     -1.909519
  H      -0.635537     -0.450190      0.566548
  C       2.636673      3.496855      2.817102
  N       3.845714      2.867646      2.577763
  C       3.924314      2.000455      1.405288
  C       2.737874      1.058127      1.352615
  N       1.461979      1.837791      1.445819
  C       1.414432      2.662533      2.703054
  H       2.640003      4.312901      3.524944
  H       4.658599      3.454302      2.702468
  H       4.838100      1.409611      1.454756
  H       3.952390      2.593389      0.481441
  H       2.716110      0.514209      0.409765
  H       2.734943      0.363401      2.191736
  H       1.368571      2.444054      0.628764
  H       0.511677      3.268538      2.676721
  H       1.315718      1.928331      3.514089
  H      -0.498940     -0.738180      2.075063
  H       0.656358      1.176751      1.438202
  O      -0.631061     -0.020813      1.441294
40
Coordinates from ORCA-job /home/rudenko/2025/kie/for_orca/m-o2nc6h4chno2ch3_piperazine/orca/ts_opt/ts_opt E -1063.545177926897
  C      -3.829493     -0.178315     -2.031397
  C      -2.461613     -0.042321     -1.835618
  C      -1.615874     -1.166216     -1.672697
  C      -2.244170     -2.428425     -1.714053
  C      -3.610698     -2.530412     -1.911730
  C      -4.435801     -1.424945     -2.077033
  H      -4.435527      0.711544     -2.143905
  H      -2.025534      0.939590     -1.797827
  H      -1.675788     -3.336255     -1.607742
  H      -5.497737     -1.540960     -2.224855
  N      -4.210087     -3.868154     -1.948954
  O      -5.407497     -3.961238     -2.196561
  O      -3.492495     -4.840721     -1.743357
  C      -0.178783     -1.131755     -1.437929
  C       0.548010     -2.388275     -1.051140
  H       1.507963     -2.143299     -0.607538
  H       0.736917     -3.043237     -1.909981
  H      -0.031839     -2.962119     -0.326454
  N       0.581418     -0.039739     -1.692269
  O       1.857070     -0.115366     -1.608570
  O       0.071748      1.086040     -2.016513
  H      -0.664344     -0.350108      0.521594
  C       2.688742      3.474730      2.859019
  N       3.882252      2.822843      2.602539
  C       3.938256      1.975345      1.414291
  C       2.729721      1.062559      1.350142
  N       1.473977      1.872804      1.458224
  C       1.446526      2.672144      2.732160
  H       2.713504      4.276234      3.582869
  H       4.708771      3.388095      2.735976
  H       4.838443      1.363109      1.450865
  H       3.977543      2.583839      0.501004
  H       2.690841      0.528848      0.401413
  H       2.712115      0.357152      2.180176
  H       1.400661      2.500589      0.655850
  H       0.558401      3.299864      2.719701
  H       1.331488      1.924203      3.528305
  H      -0.567272     -0.652131      2.030578
  H       0.653408      1.230864      1.431614
  O      -0.663220      0.073594      1.399801
40
Coordinates from ORCA-job /home/rudenko/2025/kie/for_orca/m-o2nc6h4chno2ch3_piperazine/orca/ts_opt/ts_opt E -1063.544994349910
  C      -3.842182     -0.204377     -2.041173
  C      -2.474873     -0.056788     -1.851013
  C      -1.620622     -1.172868     -1.682615
  C      -2.238117     -2.440503     -1.715001
  C      -3.604433     -2.554466     -1.908435
  C      -4.438582     -1.456208     -2.076934
  H      -4.455643      0.679858     -2.157478
  H      -2.045696      0.929073     -1.822481
  H      -1.661678     -3.342765     -1.604943
  H      -5.499923     -1.581478     -2.221350
  N      -4.193961     -3.896851     -1.937895
  O      -5.396857     -3.998037     -2.153813
  O      -3.465480     -4.864489     -1.748212
  C      -0.184414     -1.120529     -1.447018
  C       0.553865     -2.357913     -1.022599
  H       1.502029     -2.090859     -0.566104
  H       0.769418     -3.025576     -1.865409
  H      -0.030765     -2.926805     -0.298207
  N       0.564498     -0.030676     -1.741561
  O       1.840463     -0.088101     -1.649061
  O       0.042107      1.073787     -2.115520
  H      -0.693663     -0.258287      0.476435
  C       2.725814      3.444036      2.899452
  N       3.906141      2.777014      2.621049
  C       3.941534      1.953995      1.414739
  C       2.715847      1.065543      1.339417
  N       1.476903      1.898701      1.468191
  C       1.467974      2.667894      2.760501
  H       2.769167      4.228175      3.641204
  H       4.743337      3.324268      2.762585
  H       4.830808      1.325275      1.433982
  H       3.987225      2.580799      0.514180
  H       2.661020      0.546297      0.383258
  H       2.688793      0.346915      2.157795
  H       1.418992      2.548875      0.682578
  H       0.591778      3.312287      2.766026
  H       1.341662      1.903967      3.539523
  H      -0.638998     -0.572455      1.984950
  H       0.644214      1.273105      1.423406
  O      -0.697701      0.160167      1.357551
40
Coordinates from ORCA-job /home/rudenko/2025/kie/for_orca/m-o2nc6h4chno2ch3_piperazine/orca/ts_opt/ts_opt E -1063.544843834263
  C      -3.836065     -0.213503     -2.069406
  C      -2.469151     -0.051307     -1.888258
  C      -1.606492     -1.156718     -1.691799
  C      -2.216066     -2.428867     -1.685937
  C      -3.582029     -2.557261     -1.871876
  C      -4.424177     -1.469767     -2.068192
  H      -4.455843      0.662978     -2.208752
  H      -2.046862      0.937641     -1.889202
  H      -1.633316     -3.323834     -1.551491
  H      -5.485005     -1.606174     -2.206174
  N      -4.162298     -3.904075     -1.863343
  O      -5.367177     -4.018280     -2.060842
  O      -3.423755     -4.862562     -1.666479
  C      -0.169251     -1.092390     -1.465293
  C       0.573777     -2.319919     -1.022361
  H       1.539447     -2.044700     -0.610432
  H       0.752170     -3.019830     -1.847509
  H       0.010669     -2.857485     -0.257437
  N       0.574876     -0.005199     -1.782542
  O       1.851884     -0.056549     -1.699903
  O       0.046805      1.092115     -2.169161
  H      -0.744047     -0.196477      0.440157
  C       2.732952      3.397119      2.929401
  N       3.904764      2.722948      2.632221
  C       3.926939      1.925615      1.408362
  C       2.690982      1.052833      1.318664
  N       1.462051      1.897499      1.469786
  C       1.465663      2.638729      2.778158
  H       2.787892      4.164528      3.687696
  H       4.748571      3.257576      2.782449
  H       4.809226      1.286849      1.410904
  H       3.976457      2.571100      0.521265
  H       2.627776      0.553743      0.351604
  H       2.658566      0.317572      2.121889
  H       1.410212      2.565555      0.698778
  H       0.596956      3.292847      2.800259
  H       1.332811      1.859867      3.541135
  H      -0.730072     -0.514882      1.948881
  H       0.621898      1.282427      1.412837
  O      -0.751737      0.220239      1.321944
40
Coordinates from ORCA-job /home/rudenko/2025/kie/for_orca/m-o2nc6h4chno2ch3_piperazine/orca/ts_opt/ts_opt E -1063.544674907532
  C      -3.826240     -0.223142     -2.103251
  C      -2.459909     -0.048257     -1.929915
  C      -1.590887     -1.142664     -1.701210
  C      -2.194045     -2.417439     -1.655535
  C      -3.559540     -2.558338     -1.834561
  C      -4.407918     -1.481706     -2.062030
  H      -4.450693      0.645383     -2.269067
  H      -2.042664      0.942414     -1.962884
  H      -1.606679     -3.304828     -1.494521
  H      -5.468200     -1.627777     -2.194136
  N      -4.132352     -3.907519     -1.784732
  O      -5.339925     -4.032170     -1.957548
  O      -3.385967     -4.857112     -1.575015
  C      -0.153503     -1.064944     -1.482571
  C       0.598266     -2.279565     -1.019470
  H       1.577108     -1.994219     -0.648510
  H       0.746744     -3.009350     -1.824443
  H       0.057466     -2.787578     -0.218626
  N       0.581255      0.021427     -1.823156
  O       1.859515     -0.019625     -1.751556
  O       0.041329      1.108405     -2.222625
  H      -0.795004     -0.134809      0.404690
  C       2.738943      3.345429      2.961049
  N       3.902381      2.666549      2.642008
  C       3.910884      1.898669      1.399181
  C       2.665294      1.041352      1.294912
  N       1.446092      1.895288      1.471639
  C       1.462689      2.604720      2.797093
  H       2.805490      4.093754      3.737259
  H       4.752391      3.188647      2.801071
  H       4.786469      1.250971      1.382234
  H       3.962972      2.564714      0.527541
  H       2.592593      0.565110      0.316833
  H       2.628872      0.288061      2.081058
  H       1.399440      2.582498      0.717014
  H       0.601319      3.267559      2.838319
  H       1.324174      1.809438      3.541916
  H      -0.820257     -0.458866      1.911806
  H       0.598297      1.290781      1.402257
  O      -0.806199      0.278738      1.287482
40
Coordinates from ORCA-job /home/rudenko/2025/kie/for_orca/m-o2nc6h4chno2ch3_piperazine/orca/ts_opt/ts_opt E -1063.544781296598
  C      -3.822006     -0.210321     -2.087641
  C      -2.455307     -0.045704     -1.909383
  C      -1.592570     -1.146837     -1.693805
  C      -2.202612     -2.417618     -1.665773
  C      -3.568410     -2.548109     -1.848907
  C      -4.410394     -1.464677     -2.064115
  H      -4.441362      0.662914     -2.242741
  H      -2.033212      0.940857     -1.926863
  H      -1.620579     -3.310073     -1.515090
  H      -5.471129     -1.602831     -2.199555
  N      -4.148710     -3.893245     -1.816623
  O      -5.354724     -4.009920     -2.002247
  O      -3.410192     -4.850551     -1.604743
  C      -0.155170     -1.080222     -1.472045
  C       0.590949     -2.303730     -1.025766
  H       1.566549     -2.027322     -0.643970
  H       0.743995     -3.019133     -1.840599
  H       0.044726     -2.823695     -0.238614
  N       0.584989      0.007342     -1.793657
  O       1.862650     -0.041114     -1.720978
  O       0.051882      1.103138     -2.174657
  H      -0.768171     -0.182685      0.429603
  C       2.722947      3.370254      2.938177
  N       3.893924      2.700198      2.629915
  C       3.912883      1.916709      1.397960
  C       2.677330      1.045086      1.303407
  N       1.448768      1.886718      1.467636
  C       1.455821      2.613723      2.782946
  H       2.779548      4.129073      3.704095
  H       4.737633      3.233236      2.782625
  H       4.795147      1.278605      1.390224
  H       3.959399      2.571417      0.518103
  H       2.612118      0.557364      0.331765
  H       2.647561      0.301745      2.098385
  H       1.394062      2.561583      0.703311
  H       0.587338      3.267109      2.814901
  H       1.325102      1.827358      3.537942
  H      -0.769763     -0.502722      1.937311
  H       0.607412      1.273592      1.408094
  O      -0.778423      0.232488      1.311370
40
Coordinates from ORCA-job /home/rudenko/2025/kie/for_orca/m-o2nc6h4chno2ch3_piperazine/orca/ts_opt/ts_opt E -1063.542868024096
  C      -3.787857     -0.183624     -2.090237
  C      -2.422351     -0.043574     -1.903145
  C      -1.574948     -1.158148     -1.684019
  C      -2.202377     -2.423706     -1.657042
  C      -3.567245     -2.525943     -1.854129
  C      -4.391909     -1.426821     -2.073135
  H      -4.392976      0.701900     -2.248998
  H      -1.991788      0.924419     -1.905879
  H      -1.634941     -3.332665     -1.496218
  H      -5.451541     -1.542846     -2.219112
  N      -4.166560     -3.846807     -1.844686
  O      -5.377626     -3.978591     -2.006824
  O      -3.444690     -4.844897     -1.631662
  C      -0.137565     -1.109527     -1.457007
  C       0.589788     -2.339146     -1.001287
  H       1.587293     -2.063473     -0.656865
  H       0.698106     -3.087546     -1.809693
  H       0.051740     -2.830167     -0.175807
  N       0.613093     -0.028085     -1.789093
  O       1.890443     -0.072083     -1.719900
  O       0.090974      1.070239     -2.177827
  H      -0.766984     -0.200628      0.442894
  C       2.695648      3.370512      2.949991
  N       3.877777      2.734648      2.594772
  C       3.890279      1.963452      1.348660
  C       2.682838      1.057479      1.280137
  N       1.436875      1.871942      1.479831
  C       1.450675      2.580703      2.812811
  H       2.746442      4.120733      3.731834
  H       4.706217      3.290239      2.730502
  H       4.791830      1.349034      1.304633
  H       3.891614      2.630808      0.474171
  H       2.617131      0.566991      0.310357
  H       2.691966      0.313089      2.073196
  H       1.354892      2.559515      0.724422
  H       0.564494      3.212944      2.879677
  H       1.360559      1.775851      3.559486
  H      -0.787156     -0.520651      1.956184
  H       0.603762      1.248288      1.426006
  O      -0.785922      0.216144      1.323002
40
Coordinates from ORCA-job /home/rudenko/2025/kie/for_orca/m-o2nc6h4chno2ch3_piperazine/orca/ts_opt/ts_opt E -1063.544352458671
  C      -3.825577     -0.199092     -2.100585
  C      -2.459963     -0.039509     -1.914340
  C      -1.600864     -1.153000     -1.688719
  C      -2.213944     -2.428137     -1.661665
  C      -3.577796     -2.551861     -1.854951
  C      -4.417137     -1.460819     -2.074702
  H      -4.441475      0.686638     -2.266095
  H      -2.035292      0.956678     -1.936211
  H      -1.634356     -3.327945     -1.506561
  H      -5.476263     -1.592201     -2.218605
  N      -4.156159     -3.889456     -1.837424
  O      -5.362393     -4.016993     -2.022473
  O      -3.418009     -4.839594     -1.627603
  C      -0.162857     -1.092759     -1.463811
  C       0.579167     -2.322300     -1.025234
  H       1.566089     -2.048869     -0.647118
  H       0.722356     -3.040126     -1.850650
  H       0.030436     -2.842196     -0.229980
  N       0.580921     -0.004619     -1.779659
  O       1.859808     -0.055710     -1.710034
  O       0.051103      1.097868     -2.151232
  H      -0.754290     -0.205967      0.451471
  C       2.720522      3.384441      2.938446
  N       3.896981      2.723728      2.624143
  C       3.918830      1.937074      1.391794
  C       2.691942      1.052692      1.305551
  N       1.455510      1.884575      1.472971
  C       1.460505      2.615226      2.788178
  H       2.772048      4.145357      3.705751
  H       4.736108      3.265243      2.772841
  H       4.808156      1.306529      1.379856
  H       3.954619      2.591460      0.509905
  H       2.626702      0.559754      0.337041
  H       2.673294      0.312016      2.103589
  H       1.391048      2.557847      0.706313
  H       0.585463      3.261988      2.823433
  H       1.339908      1.827898      3.545433
  H      -0.741110     -0.529342      1.957834
  H       0.617678      1.265476      1.419885
  O      -0.761707      0.208008      1.333220
40
Coordinates from ORCA-job /home/rudenko/2025/kie/for_orca/m-o2nc6h4chno2ch3_piperazine/orca/ts_opt/ts_opt E -1063.543964436536
  C      -3.803425     -0.194306     -2.080852
  C      -2.432126     -0.034374     -1.911438
  C      -1.579734     -1.136680     -1.705026
  C      -2.203206     -2.398803     -1.680780
  C      -3.574756     -2.528067     -1.851720
  C      -4.406118     -1.442324     -2.058413
  H      -4.415717      0.669318     -2.219155
  H      -1.999695      0.946428     -1.923717
  H      -1.630150     -3.289287     -1.537579
  H      -5.472913     -1.583003     -2.178748
  N      -4.179043     -3.888187     -1.799287
  O      -5.382727     -3.970151     -2.007816
  O      -3.454293     -4.844716     -1.592334
  C      -0.142018     -1.093378     -1.480264
  C       0.583483     -2.333746     -1.050259
  H       1.575128     -2.073442     -0.692421
  H       0.698782     -3.058300     -1.869583
  H       0.042113     -2.839903     -0.243425
  N       0.612101     -0.007787     -1.774686
  O       1.888793     -0.071761     -1.704435
  O       0.093282      1.105015     -2.122312
  H      -0.742860     -0.239318      0.448039
  C       2.694533      3.390936      2.926199
  N       3.876037      2.736513      2.625858
  C       3.908419      1.944803      1.397106
  C       2.687556      1.050547      1.307589
  N       1.445100      1.872318      1.461894
  C       1.439043      2.611709      2.771761
  H       2.737211      4.156289      3.688220
  H       4.712222      3.284564      2.777795
  H       4.800942      1.320514      1.392952
  H       3.944494      2.596022      0.512062
  H       2.633473      0.551838      0.341298
  H       2.668437      0.315202      2.111057
  H       1.377563      2.538703      0.689431
  H       0.560350      3.251588      2.796470
  H       1.318745      1.828794      3.533899
  H      -0.731870     -0.561084      1.959479
  H       0.612909      1.244143      1.412206
  O      -0.760064      0.173376      1.330933
40
Coordinates from ORCA-job /home/rudenko/2025/kie/for_orca/m-o2nc6h4chno2ch3_piperazine/orca/ts_opt/ts_opt E -1063.544195633480
  C      -3.796838     -0.169353     -2.076628
  C      -2.429213     -0.024785     -1.893830
  C      -1.577672     -1.137845     -1.684697
  C      -2.204863     -2.402418     -1.663309
  C      -3.569253     -2.510425     -1.851119
  C      -4.398893     -1.412835     -2.065388
  H      -4.407093      0.722436     -2.232797
  H      -1.992256      0.966902     -1.911549
  H      -1.634086     -3.304658     -1.519195
  H      -5.459640     -1.536668     -2.203217
  N      -4.160744     -3.854576     -1.818293
  O      -5.359257     -3.951960     -2.047392
  O      -3.435584     -4.837287     -1.558287
  C      -0.139627     -1.098751     -1.462448
  C       0.587102     -2.346835     -1.054177
  H       1.579316     -2.097399     -0.702788
  H       0.693212     -3.057850     -1.879306
  H       0.054284     -2.859675     -0.252714
  N       0.612111     -0.006054     -1.734893
  O       1.890789     -0.074679     -1.677460
  O       0.089137      1.116691     -2.049640
  H      -0.733479     -0.289680      0.480067
  C       2.675169      3.397992      2.896124
  N       3.862320      2.751037      2.602398
  C       3.898053      1.949203      1.382856
  C       2.685923      1.043623      1.303849
  N       1.434076      1.853010      1.455880
  C       1.426627      2.608013      2.754396
  H       2.712673      4.172037      3.646571
  H       4.693139      3.306887      2.745977
  H       4.796782      1.333474      1.382236
  H       3.924916      2.591696      0.492827
  H       2.633541      0.541447      0.338846
  H       2.677778      0.311527      2.111036
  H       1.352384      2.506375      0.676078
  H       0.542510      3.240691      2.772593
  H       1.314879      1.835232      3.525157
  H      -0.698587     -0.612896      1.988512
  H       0.608929      1.216720      1.420180
  O      -0.748566      0.121637      1.363543
40
Coordinates from ORCA-job /home/rudenko/2025/kie/for_orca/m-o2nc6h4chno2ch3_piperazine/orca/ts_opt/ts_opt E -1063.543323739221
  C      -3.791442     -0.166362     -2.049995
  C      -2.419806     -0.029080     -1.880783
  C      -1.577017     -1.140625     -1.694236
  C      -2.215059     -2.397697     -1.684671
  C      -3.585806     -2.499819     -1.856068
  C      -4.407501     -1.404679     -2.044507
  H      -4.394055      0.711692     -2.178168
  H      -1.982764      0.924463     -1.873285
  H      -1.652020     -3.304732     -1.555273
  H      -5.472450     -1.521497     -2.170271
  N      -4.193150     -3.835510     -1.828306
  O      -5.402867     -3.985813     -2.004666
  O      -3.476950     -4.797957     -1.590185
  C      -0.136934     -1.104734     -1.477384
  C       0.595708     -2.356365     -1.084984
  H       1.578208     -2.110741     -0.710554
  H       0.723981     -3.044888     -1.920370
  H       0.055502     -2.892219     -0.308354
  N       0.615438     -0.007507     -1.728407
  O       1.893245     -0.085392     -1.671513
  O       0.098025      1.121392     -2.022107
  H      -0.710731     -0.322430      0.475183
  C       2.658179      3.421631      2.880908
  N       3.849396      2.770375      2.624694
  C       3.911048      1.952390      1.416426
  C       2.698411      1.044228      1.320278
  N       1.444021      1.851011      1.437115
  C       1.410962      2.629177      2.722172
  H       2.681107      4.207684      3.621478
  H       4.678652      3.327526      2.781873
  H       4.807552      1.337044      1.447782
  H       3.961637      2.582380      0.517760
  H       2.659528      0.535598      0.358158
  H       2.674096      0.317022      2.132845
  H       1.372411      2.487730      0.641816
  H       0.528854      3.263047      2.709820
  H       1.278566      1.868666      3.503710
  H      -0.653133     -0.647365      1.981843
  H       0.620026      1.212826      1.401924
  O      -0.722867      0.089532      1.358306
40
Coordinates from ORCA-job /home/rudenko/2025/kie/for_orca/m-o2nc6h4chno2ch3_piperazine/orca/ts_opt/ts_opt E -1063.544677644588
  C      -3.795380     -0.155460     -2.037523
  C      -2.423262     -0.021478     -1.863899
  C      -1.581994     -1.149507     -1.678451
  C      -2.225037     -2.412212     -1.677626
  C      -3.594451     -2.509546     -1.854298
  C      -4.414603     -1.403259     -2.039519
  H      -4.397496      0.727275     -2.159222
  H      -1.980378      0.953267     -1.853889
  H      -1.663703     -3.323791     -1.557385
  H      -5.479587     -1.517824     -2.170944
  N      -4.203485     -3.829645     -1.853223
  O      -5.401538     -3.902099     -2.092906
  O      -3.491105     -4.795795     -1.621730
  C      -0.141144     -1.122135     -1.464959
  C       0.589467     -2.380664     -1.090948
  H       1.583514     -2.139037     -0.715025
  H       0.711374     -3.061998     -1.945999
  H       0.046251     -2.928015     -0.313606
  N       0.614945     -0.021862     -1.700346
  O       1.892696     -0.105539     -1.647145
  O       0.105046      1.117178     -1.972603
  H      -0.686696     -0.367312      0.501589
  C       2.643443      3.445224      2.862882
  N       3.841564      2.798852      2.613406
  C       3.914511      1.967423      1.414371
  C       2.711394      1.048734      1.325888
  N       1.448073      1.846767      1.432327
  C       1.404388      2.641718      2.709502
  H       2.657605      4.239583      3.598044
  H       4.664750      3.363185      2.766375
  H       4.816946      1.358574      1.454896
  H       3.962399      2.586751      0.508801
  H       2.679085      0.531846      0.368423
  H       2.692527      0.329282      2.143702
  H       1.369399      2.471564      0.626965
  H       0.516634      3.270637      2.688638
  H       1.275666      1.888728      3.500148
  H      -0.598611     -0.688352      2.005349
  H       0.630068      1.201071      1.406601
  O      -0.693277      0.047872      1.383340
40
Coordinates from ORCA-job /home/rudenko/2025/kie/for_orca/m-o2nc6h4chno2ch3_piperazine/orca/ts_opt/ts_opt E -1063.544116826587
  C      -3.782548     -0.130744     -2.040196
  C      -2.413269     -0.012539     -1.857707
  C      -1.576507     -1.142822     -1.674256
  C      -2.216897     -2.383495     -1.689172
  C      -3.587242     -2.478375     -1.863306
  C      -4.402605     -1.365398     -2.049593
  H      -4.380650      0.771737     -2.174079
  H      -1.961757      0.977067     -1.858216
  H      -1.656762     -3.292047     -1.573304
  H      -5.466784     -1.470739     -2.182391
  N      -4.204876     -3.828612     -1.834967
  O      -5.410454     -3.948934     -2.046807
  O      -3.498211     -4.785344     -1.593720
  C      -0.137459     -1.131557     -1.461497
  C       0.581247     -2.403112     -1.109984
  H       1.574901     -2.178430     -0.738983
  H       0.690223     -3.075888     -1.971007
  H       0.039272     -2.951696     -0.337656
  N       0.624501     -0.031073     -1.674212
  O       1.902559     -0.121372     -1.631340
  O       0.117404      1.116107     -1.915020
  H      -0.667408     -0.416494      0.521339
  C       2.618491      3.455129      2.845560
  N       3.823987      2.818329      2.601430
  C       3.905907      1.977975      1.410615
  C       2.714242      1.047066      1.329792
  N       1.441522      1.832443      1.431839
  C       1.389233      2.638870      2.701420
  H       2.623456      4.255375      3.571468
  H       4.640853      3.391757      2.748336
  H       4.815373      1.378150      1.454428
  H       3.945774      2.590480      0.500739
  H       2.689756      0.526108      0.374267
  H       2.703786      0.332852      2.151277
  H       1.352822      2.448529      0.620803
  H       0.494510      3.258599      2.674590
  H       1.269587      1.893344      3.499081
  H      -0.555891     -0.735639      2.022488
  H       0.631824      1.176791      1.413709
  O      -0.671910     -0.002399      1.404232
40
Coordinates from ORCA-job /home/rudenko/2025/kie/for_orca/m-o2nc6h4chno2ch3_piperazine/orca/ts_opt/ts_opt E -1063.544905560043
  C      -3.758889     -0.113797     -2.014424
  C      -2.383872      0.002843     -1.846193
  C      -1.559466     -1.136272     -1.674638
  C      -2.221045     -2.394378     -1.680682
  C      -3.592027     -2.468389     -1.851962
  C      -4.396780     -1.356442     -2.020182
  H      -4.348059      0.784434     -2.133124
  H      -1.927820      0.968599     -1.832577
  H      -1.672431     -3.316796     -1.568936
  H      -5.464941     -1.456552     -2.143848
  N      -4.224282     -3.788004     -1.842646
  O      -5.426045     -3.861763     -2.077382
  O      -3.530674     -4.764598     -1.597268
  C      -0.119105     -1.141374     -1.465388
  C       0.587380     -2.423512     -1.131024
  H       1.584181     -2.211108     -0.769505
  H       0.680246     -3.091207     -1.993507
  H       0.048307     -2.970611     -0.357397
  N       0.650447     -0.043359     -1.658300
  O       1.927361     -0.142418     -1.620362
  O       0.149846      1.111401     -1.872442
  H      -0.645037     -0.463371      0.529007
  C       2.585721      3.468419      2.824678
  N       3.798250      2.843150      2.595650
  C       3.894836      1.995047      1.410759
  C       2.713785      1.048192      1.329987
  N       1.432213      1.818446      1.420201
  C       1.365623      2.636736      2.681074
  H       2.577985      4.274921      3.542193
  H       4.609663      3.427574      2.744111
  H       4.809922      1.406530      1.463166
  H       3.932345      2.602619      0.496042
  H       2.701564      0.520788      0.377113
  H       2.707067      0.339068      2.157055
  H       1.337120      2.423512      0.602147
  H       0.464815      3.244552      2.642863
  H       1.250257      1.897442      3.485518
  H      -0.518080     -0.775593      2.031159
  H       0.631594      1.152585      1.408662
  O      -0.651974     -0.047315      1.410402
40
Coordinates from ORCA-job /home/rudenko/2025/kie/for_orca/m-o2nc6h4chno2ch3_piperazine/orca/ts_opt/ts_opt E -1063.544818887953
  C      -3.745241     -0.091394     -1.993280
  C      -2.373790     -0.003010     -1.812956
  C      -1.556581     -1.148352     -1.653604
  C      -2.225257     -2.390683     -1.674968
  C      -3.595643     -2.447385     -1.849089
  C      -4.386666     -1.305299     -2.027028
  H      -4.325743      0.812789     -2.104407
  H      -1.909790      0.961054     -1.790222
  H      -1.684563     -3.314415     -1.573760
  H      -5.451137     -1.381194     -2.161983
  N      -4.237131     -3.765490     -1.844591
  O      -5.436461     -3.828909     -2.089861
  O      -3.550440     -4.744352     -1.599550
  C      -0.112765     -1.161551     -1.456533
  C       0.595561     -2.450943     -1.151847
  H       1.613501     -2.245096     -0.812867
  H       0.660401     -3.108073     -2.029617
  H       0.069151     -3.005230     -0.363567
  N       0.661590     -0.063601     -1.633030
  O       1.938402     -0.171316     -1.605440
  O       0.165882      1.098948     -1.817430
  H      -0.619554     -0.522225      0.550112
  C       2.552651      3.485807      2.798495
  N       3.773762      2.873149      2.583959
  C       3.886277      2.014012      1.409067
  C       2.717477      1.050535      1.332465
  N       1.424919      1.802857      1.409949
  C       1.343541      2.636412      2.659008
  H       2.531232      4.300196      3.508223
  H       4.577163      3.468919      2.730200
  H       4.808476      1.438704      1.472070
  H       3.920326      2.611747      0.488591
  H       2.716712      0.514595      0.384888
  H       2.716288      0.349908      2.166304
  H       1.321117      2.394026      0.583714
  H       0.434911      3.231166      2.608943
  H       1.234241      1.905986      3.472032
  H      -0.464023     -0.824401      2.050433
  H       0.634378      1.124694      1.408532
  O      -0.623173     -0.102587      1.428646
40
Coordinates from ORCA-job /home/rudenko/2025/kie/for_orca/m-o2nc6h4chno2ch3_piperazine/orca/ts_opt/ts_opt E -1063.544410270654
  C      -3.720786     -0.072343     -1.969373
  C      -2.342092      0.019180     -1.805992
  C      -1.538667     -1.137895     -1.653953
  C      -2.215177     -2.364451     -1.688829
  C      -3.591497     -2.425978     -1.842798
  C      -4.381458     -1.310424     -1.984026
  H      -4.294576      0.837558     -2.072420
  H      -1.861847      0.999478     -1.795128
  H      -1.677678     -3.282246     -1.604334
  H      -5.454128     -1.397526     -2.097351
  N      -4.245897     -3.730598     -1.846356
  O      -5.450917     -3.791381     -2.077625
  O      -3.576702     -4.733252     -1.589003
  C      -0.096987     -1.169823     -1.460824
  C       0.592956     -2.473991     -1.175663
  H       1.604028     -2.289260     -0.840122
  H       0.645138     -3.123740     -2.055152
  H       0.066867     -3.027915     -0.396573
  N       0.688774     -0.077740     -1.613537
  O       1.963513     -0.197783     -1.589361
  O       0.204714      1.092742     -1.770255
  H      -0.599578     -0.567118      0.553121
  C       2.518285      3.497500      2.776610
  N       3.746156      2.892436      2.576659
  C       3.874114      2.022046      1.412650
  C       2.715110      1.047979      1.338303
  N       1.415215      1.788625      1.399066
  C       1.317645      2.636241      2.637972
  H       2.484937      4.318617      3.478693
  H       4.542693      3.495807      2.720783
  H       4.801090      1.455343      1.487506
  H       3.908450      2.609665      0.486341
  H       2.727890      0.504793      0.395431
  H       2.714215      0.354922      2.178106
  H       1.309138      2.367505      0.563329
  H       0.404081      3.222895      2.574773
  H       1.208828      1.914110      3.458942
  H      -0.431217     -0.862088      2.056623
  H       0.631590      1.102465      1.402126
  O      -0.606220     -0.144356      1.431642
40
Coordinates from ORCA-job /home/rudenko/2025/kie/for_orca/m-o2nc6h4chno2ch3_piperazine/orca/ts_opt/ts_opt E -1063.545129251805
  C      -3.698787     -0.035802     -1.962040
  C      -2.324636      0.032669     -1.789491
  C      -1.526845     -1.133845     -1.642052
  C      -2.214264     -2.365821     -1.678033
  C      -3.588451     -2.402454     -1.839155
  C      -4.364938     -1.254558     -1.990557
  H      -4.264299      0.887368     -2.065614
  H      -1.848603      0.981191     -1.759387
  H      -1.687721     -3.314535     -1.582017
  H      -5.434652     -1.319938     -2.109477
  N      -4.251253     -3.719154     -1.834094
  O      -5.447522     -3.758865     -2.094852
  O      -3.583442     -4.711017     -1.577156
  C      -0.086151     -1.180599     -1.450205
  C       0.591999     -2.497267     -1.194600
  H       1.600373     -2.330624     -0.860236
  H       0.635505     -3.131330     -2.083352
  H       0.066541     -3.058899     -0.428343
  N       0.707178     -0.090077     -1.577334
  O       1.981829     -0.216188     -1.565294
  O       0.230448      1.089612     -1.698021
  H      -0.576517     -0.625526      0.573147
  C       2.481337      3.508801      2.751303
  N       3.719557      2.920543      2.552098
  C       3.858957      2.040269      1.396711
  C       2.717560      1.047444      1.336403
  N       1.403834      1.768327      1.395653
  C       1.296115      2.627963      2.626431
  H       2.435319      4.335891      3.445048
  H       4.505209      3.537704      2.685616
  H       4.796857      1.488808      1.471989
  H       3.878870      2.619341      0.464675
  H       2.739433      0.498412      0.396691
  H       2.731750      0.360471      2.181015
  H       1.283181      2.335485      0.552958
  H       0.372254      3.200501      2.560454
  H       1.202461      1.913751      3.455461
  H      -0.386379     -0.916518      2.075316
  H       0.630528      1.070683      1.408406
  O      -0.582637     -0.202220      1.451934
40
Coordinates from ORCA-job /home/rudenko/2025/kie/for_orca/m-o2nc6h4chno2ch3_piperazine/orca/ts_opt/ts_opt E -1063.545385659527
  C      -3.681407     -0.035658     -1.909536
  C      -2.301327      0.024982     -1.755063
  C      -1.517681     -1.143402     -1.633522
  C      -2.226591     -2.372035     -1.676008
  C      -3.600939     -2.382308     -1.832715
  C      -4.362336     -1.231198     -1.958040
  H      -4.234412      0.886604     -1.993344
  H      -1.802691      0.989338     -1.729419
  H      -1.713171     -3.307845     -1.608549
  H      -5.432883     -1.277337     -2.072115
  N      -4.281511     -3.673848     -1.849918
  O      -5.481917     -3.703456     -2.101211
  O      -3.630944     -4.682098     -1.597740
  C      -0.072769     -1.202274     -1.456588
  C       0.601546     -2.526165     -1.228546
  H       1.631113     -2.366077     -0.909086
  H       0.622603     -3.148242     -2.132262
  H       0.080493     -3.098323     -0.451055
  N       0.729524     -0.117152     -1.565321
  O       2.002425     -0.258659     -1.559517
  O       0.263696      1.069959     -1.653856
  H      -0.542430     -0.680592      0.577231
  C       2.441481      3.531287      2.723561
  N       3.687217      2.954949      2.558816
  C       3.855260      2.061831      1.416076
  C       2.723686      1.052897      1.347063
  N       1.402254      1.755812      1.375348
  C       1.266545      2.633297      2.589624
  H       2.375189      4.366805      3.404723
  H       4.466726      3.584098      2.701905
  H       4.795671      1.523046      1.516405
  H       3.887665      2.630372      0.476516
  H       2.765221      0.492251      0.414996
  H       2.730517      0.376595      2.200952
  H       1.284020      2.304268      0.520393
  H       0.338916      3.192136      2.498565
  H       1.165771      1.931044      3.428622
  H      -0.326621     -0.952369      2.078075
  H       0.638458      1.047834      1.393503
  O      -0.546368     -0.250366      1.451039
40
Coordinates from ORCA-job /home/rudenko/2025/kie/for_orca/m-o2nc6h4chno2ch3_piperazine/orca/ts_opt/ts_opt E -1063.545604258650
  C      -3.653639      0.017150     -1.906782
  C      -2.278356      0.047154     -1.739491
  C      -1.504721     -1.137730     -1.620028
  C      -2.214998     -2.346495     -1.678531
  C      -3.592595     -2.360508     -1.822169
  C      -4.348651     -1.198135     -1.942122
  H      -4.199129      0.952635     -1.989708
  H      -1.780293      0.988186     -1.699795
  H      -1.703529     -3.284826     -1.620724
  H      -5.421370     -1.241188     -2.049735
  N      -4.280932     -3.657287     -1.836860
  O      -5.478127     -3.671063     -2.100550
  O      -3.639136     -4.671637     -1.575446
  C      -0.063143     -1.215237     -1.447532
  C       0.598489     -2.552410     -1.253909
  H       1.629611     -2.413648     -0.945099
  H       0.601147     -3.156501     -2.168425
  H       0.082546     -3.132240     -0.482748
  N       0.748566     -0.135326     -1.530783
  O       2.020505     -0.286149     -1.538190
  O       0.290968      1.058778     -1.581727
  H      -0.517423     -0.740009      0.596801
  C       2.400709      3.541296      2.692488
  N       3.655744      2.979263      2.537504
  C       3.838104      2.074396      1.408093
  C       2.722540      1.050334      1.350707
  N       1.389403      1.734237      1.369831
  C       1.239579      2.626653      2.570353
  H       2.321021      4.384374      3.362154
  H       4.424673      3.619257      2.671456
  H       4.787008      1.549822      1.515546
  H       3.862236      2.630100      0.462256
  H       2.775686      0.482258      0.423842
  H       2.739117      0.382843      2.210705
  H       1.260940      2.266041      0.506313
  H       0.303579      3.171982      2.470330
  H       1.148045      1.936107      3.418741
  H      -0.279681     -1.001948      2.095958
  H       0.636205      1.015794      1.397380
  O      -0.520699     -0.306323      1.469898
40
Coordinates from ORCA-job /home/rudenko/2025/kie/for_orca/m-o2nc6h4chno2ch3_piperazine/orca/ts_opt/ts_opt E -1063.545770093643
  C      -3.622616      0.027727     -1.855353
  C      -2.240410      0.055601     -1.710320
  C      -1.483112     -1.137216     -1.611260
  C      -2.215018     -2.343082     -1.674814
  C      -3.590947     -2.322244     -1.816425
  C      -4.329185     -1.153883     -1.913634
  H      -4.157381      0.958260     -1.915564
  H      -1.721663      1.006824     -1.672589
  H      -1.723980     -3.317115     -1.611970
  H      -5.403634     -1.180195     -2.011996
  N      -4.300137     -3.604241     -1.841477
  O      -5.497328     -3.602142     -2.106325
  O      -3.672895     -4.627416     -1.589492
  C      -0.042023     -1.235413     -1.447851
  C       0.601357     -2.585436     -1.286204
  H       1.626566     -2.469257     -0.978235
  H       0.593837     -3.170180     -2.208986
  H       0.083080     -3.173590     -0.530570
  N       0.783002     -0.164131     -1.506650
  O       2.052302     -0.327515     -1.522158
  O       0.341385      1.036670     -1.524025
  H      -0.484512     -0.800929      0.603801
  C       2.346408      3.558098      2.661292
  N       3.612406      3.015310      2.522313
  C       3.820044      2.098005      1.405796
  C       2.724419      1.052796      1.354679
  N       1.379220      1.712921      1.355641
  C       1.203633      2.620404      2.542566
  H       2.245694      4.408644      3.321333
  H       4.368311      3.670712      2.652891
  H       4.777395      1.591580      1.526605
  H       3.841041      2.641269      0.451932
  H       2.796703      0.474554      0.435212
  H       2.747233      0.395825      2.222926
  H       1.245423      2.226596      0.480427
  H       0.258863      3.148113      2.428054
  H       1.117378      1.939690      3.401163
  H      -0.228642     -1.048552      2.104820
  H       0.637438      0.983786      1.390495
  O      -0.489654     -0.360851      1.473951
40
Coordinates from ORCA-job /home/rudenko/2025/kie/for_orca/m-o2nc6h4chno2ch3_piperazine/orca/ts_opt/ts_opt E -1063.546229876246
  C      -3.594679      0.058498     -1.825238
  C      -2.213671      0.058080     -1.682686
  C      -1.470954     -1.142243     -1.601136
  C      -2.220940     -2.340685     -1.670383
  C      -3.598753     -2.306233     -1.801166
  C      -4.320885     -1.121511     -1.885493
  H      -4.112894      1.018871     -1.889120
  H      -1.686396      0.986965     -1.633377
  H      -1.738629     -3.286729     -1.639599
  H      -5.393651     -1.126027     -1.982553
  N      -4.325239     -3.576872     -1.835982
  O      -5.520317     -3.552246     -2.107491
  O      -3.715015     -4.610174     -1.585504
  C      -0.028442     -1.260047     -1.450290
  C       0.602749     -2.620482     -1.324061
  H       1.642121     -2.520577     -1.027042
  H       0.574375     -3.185591     -2.263401
  H       0.085312     -3.220629     -0.569242
  N       0.809158     -0.197997     -1.488074
  O       2.076297     -0.375987     -1.513919
  O       0.381397      1.009423     -1.471005
  H      -0.446722     -0.866077      0.615958
  C       2.298724      3.577073      2.633381
  N       3.574833      3.054188      2.515302
  C       3.808264      2.125776      1.413160
  C       2.730864      1.060318      1.365794
  N       1.374454      1.695247      1.346276
  C       1.173105      2.617533      2.517199
  H       2.177208      4.434051      3.280195
  H       4.319146      3.724644      2.644712
  H       4.772775      1.638016      1.549635
  H       3.829307      2.656870      0.452209
  H       2.821956      0.471858      0.454570
  H       2.757530      0.414911      2.242306
  H       1.236758      2.189347      0.460493
  H       0.220830      3.126824      2.386101
  H       1.090167      1.949460      3.385609
  H      -0.165323     -1.092840      2.114150
  H       0.644712      0.953105      1.387793
  O      -0.449536     -0.418110      1.481920
40
Coordinates from ORCA-job /home/rudenko/2025/kie/for_orca/m-o2nc6h4chno2ch3_piperazine/orca/ts_opt/ts_opt E -1063.546487294741
  C      -3.561244      0.100288     -1.797409
  C      -2.180511      0.078187     -1.660394
  C      -1.454190     -1.140547     -1.589225
  C      -2.215623     -2.322396     -1.669818
  C      -3.591724     -2.266891     -1.794129
  C      -4.301953     -1.073791     -1.861360
  H      -4.072655      1.039944     -1.830947
  H      -1.639520      1.008464     -1.607998
  H      -1.746688     -3.300413     -1.636679
  H      -5.378521     -1.072649     -1.944565
  N      -4.331806     -3.534416     -1.832511
  O      -5.527928     -3.502073     -2.102610
  O      -3.732979     -4.577395     -1.579692
  C      -0.015096     -1.280921     -1.448049
  C       0.601542     -2.652306     -1.362066
  H       1.647808     -2.573003     -1.079090
  H       0.551320     -3.192640     -2.314706
  H       0.088268     -3.264308     -0.611789
  N       0.834744     -0.228840     -1.461403
  O       2.099394     -0.420284     -1.499130
  O       0.418249      0.983152     -1.408091
  H      -0.412433     -0.930989      0.633193
  C       2.246181      3.589695      2.595089
  N       3.531800      3.086734      2.499055
  C       3.789456      2.145504      1.415111
  C       2.730724      1.061459      1.375543
  N       1.363527      1.670934      1.336745
  C       1.137944      2.609968      2.486873
  H       2.104737      4.454606      3.224218
  H       4.263851      3.771080      2.623483
  H       4.761100      1.676983      1.567129
  H       3.808961      2.661179      0.446684
  H       2.839767      0.463284      0.472663
  H       2.763153      0.428500      2.260743
  H       1.220707      2.141106      0.439795
  H       0.178299      3.099893      2.338214
  H       1.058874      1.958142      3.366276
  H      -0.109248     -1.137938      2.128905
  H       0.646443      0.918126      1.387051
  O      -0.414730     -0.475426      1.494891
40
Coordinates from ORCA-job /home/rudenko/2025/kie/for_orca/m-o2nc6h4chno2ch3_piperazine/orca/ts_opt/ts_opt E -1063.546668435433
  C      -3.517014      0.118274     -1.737566
  C      -2.134545      0.072975     -1.616224
  C      -1.428291     -1.147884     -1.575024
  C      -2.214185     -2.315101     -1.665058
  C      -3.592225     -2.235158     -1.772987
  C      -4.278423     -1.031006     -1.816114
  H      -4.006291      1.095780     -1.771920
  H      -1.576189      0.987539     -1.554466
  H      -1.763421     -3.289951     -1.653909
  H      -5.352273     -1.000257     -1.895844
  N      -4.359137     -3.476551     -1.827511
  O      -5.550431     -3.405553     -2.104909
  O      -3.781973     -4.531905     -1.592170
  C       0.010848     -1.309948     -1.450336
  C       0.607833     -2.692135     -1.401001
  H       1.647231     -2.634803     -1.121402
  H       0.545653     -3.208161     -2.361936
  H       0.093510     -3.315317     -0.667537
  N       0.876615     -0.270104     -1.442613
  O       2.137288     -0.475977     -1.488195
  O       0.480678      0.946859     -1.361570
  H      -0.368601     -1.000729      0.643531
  C       2.177519      3.605894      2.558837
  N       3.474775      3.128250      2.479886
  C       3.762968      2.175843      1.411103
  C       2.730475      1.067056      1.381070
  N       1.350713      1.645184      1.323116
  C       1.093268      2.599159      2.455329
  H       2.010897      4.477336      3.177980
  H       4.189960      3.830184      2.600323
  H       4.743877      1.731130      1.577231
  H       3.778180      2.677159      0.434023
  H       2.863006      0.458411      0.488107
  H       2.771774      0.447667      2.275783
  H       1.202329      2.090191      0.412817
  H       0.124079      3.065776      2.290539
  H       1.019942      1.959280      3.346208
  H      -0.046042     -1.184685      2.140306
  H       0.648875      0.880214      1.382125
  O      -0.373252     -0.534934      1.499979
40
Coordinates from ORCA-job /home/rudenko/2025/kie/for_orca/m-o2nc6h4chno2ch3_piperazine/orca/ts_opt/ts_opt E -1063.546904183727
  C      -3.486056      0.158704     -1.726871
  C      -2.102523      0.095687     -1.617308
  C      -1.414873     -1.147060     -1.578290
  C      -2.219452     -2.310800     -1.662042
  C      -3.595386     -2.209032     -1.762880
  C      -4.265557     -0.988731     -1.799017
  H      -3.966250      1.121103     -1.741099
  H      -1.531684      1.004947     -1.556860
  H      -1.781463     -3.290007     -1.660067
  H      -5.342155     -0.949827     -1.864614
  N      -4.379065     -3.451837     -1.811947
  O      -5.573612     -3.378541     -2.082321
  O      -3.816871     -4.515656     -1.569015
  C       0.021128     -1.335766     -1.464620
  C       0.596986     -2.728433     -1.446589
  H       1.650016     -2.690575     -1.179393
  H       0.511345     -3.227186     -2.422176
  H       0.080477     -3.356959     -0.713393
  N       0.903895     -0.310958     -1.444312
  O       2.161224     -0.534728     -1.496245
  O       0.523054      0.911810     -1.348785
  H      -0.330215     -1.065401      0.661255
  C       2.131938      3.622507      2.539776
  N       3.438621      3.167477      2.475423
  C       3.749846      2.206876      1.422609
  C       2.737672      1.079196      1.401496
  N       1.347568      1.630439      1.329761
  C       1.066430      2.595738      2.445089
  H       1.946265      4.497844      3.143948
  H       4.140636      3.883204      2.589120
  H       4.738560      1.783455      1.599237
  H       3.760371      2.695146      0.440009
  H       2.888039      0.463100      0.515944
  H       2.787175      0.471188      2.303147
  H       1.194834      2.054450      0.410613
  H       0.089742      3.042042      2.267340
  H       0.999081      1.970131      3.344979
  H       0.013689     -1.225320      2.152965
  H       0.658746      0.851239      1.392702
  O      -0.332172     -0.589465      1.512428
40
Coordinates from ORCA-job /home/rudenko/2025/kie/for_orca/m-o2nc6h4chno2ch3_piperazine/orca/ts_opt/ts_opt E -1063.547035200911
  C      -3.438967      0.181256     -1.672284
  C      -2.058502      0.083657     -1.574764
  C      -1.392505     -1.160387     -1.566541
  C      -2.217219     -2.296019     -1.663730
  C      -3.593025     -2.169124     -1.745240
  C      -4.240862     -0.945365     -1.753139
  H      -3.896989      1.167952     -1.678019
  H      -1.469051      0.978367     -1.506250
  H      -1.801140     -3.296038     -1.670638
  H      -5.315320     -0.880885     -1.810913
  N      -4.402361     -3.386333     -1.806392
  O      -5.592547     -3.274523     -2.077305
  O      -3.859620     -4.463032     -1.582838
  C       0.041906     -1.368931     -1.473363
  C       0.603026     -2.767840     -1.488889
  H       1.659584     -2.744394     -1.236190
  H       0.498566     -3.243066     -2.471085
  H       0.092048     -3.408059     -0.759079
  N       0.939793     -0.356586     -1.443876
  O       2.192773     -0.596253     -1.498124
  O       0.575949      0.870942     -1.341146
  H      -0.283801     -1.135048      0.684002
  C       2.066044      3.636175      2.502908
  N       3.381197      3.206943      2.460271
  C       3.721359      2.237645      1.423281
  C       2.733870      1.086986      1.411168
  N       1.333833      1.606225      1.322551
  C       1.022777      2.585619      2.415181
  H       1.857310      4.516824      3.091913
  H       4.068162      3.939371      2.572005
  H       4.716950      1.838682      1.614325
  H       3.729209      2.712150      0.432898
  H       2.905795      0.462183      0.535426
  H       2.791807      0.492698      2.321889
  H       1.177298      2.002756      0.391823
  H       0.039350      3.006726      2.218881
  H       0.958668      1.975701      3.326139
  H       0.079417     -1.265458      2.173230
  H       0.662671      0.815207      1.395392
  O      -0.287451     -0.646726      1.526520
40
Coordinates from ORCA-job /home/rudenko/2025/kie/for_orca/m-o2nc6h4chno2ch3_piperazine/orca/ts_opt/ts_opt E -1063.547029470357
  C      -3.396295      0.220788     -1.643657
  C      -2.014665      0.108278     -1.562188
  C      -1.367064     -1.155756     -1.562512
  C      -2.210190     -2.289388     -1.653238
  C      -3.583973     -2.140788     -1.723169
  C      -4.212789     -0.894756     -1.725601
  H      -3.844026      1.199674     -1.630395
  H      -1.412411      0.998076     -1.494014
  H      -1.804360     -3.275436     -1.681231
  H      -5.287120     -0.816337     -1.772617
  N      -4.407635     -3.347467     -1.788706
  O      -5.599159     -3.226783     -2.053102
  O      -3.878986     -4.432509     -1.568565
  C       0.061719     -1.389571     -1.482911
  C       0.595684     -2.799139     -1.525355
  H       1.641406     -2.800155     -1.275155
  H       0.481993     -3.256598     -2.510528
  H       0.080902     -3.440543     -0.814215
  N       0.977735     -0.394115     -1.443821
  O       2.226736     -0.649874     -1.498816
  O       0.632782      0.839135     -1.336787
  H      -0.249440     -1.197571      0.704955
  C       2.007459      3.642929      2.474501
  N       3.331976      3.237095      2.437670
  C       3.693008      2.259338      1.416432
  C       2.729850      1.090029      1.422044
  N       1.319749      1.580899      1.325710
  C       0.985860      2.571761      2.401671
  H       1.780330      4.527603      3.052967
  H       4.003254      3.982679      2.537285
  H       4.697566      1.883351      1.612445
  H       3.689862      2.718143      0.419618
  H       2.918658      0.458662      0.554813
  H       2.800967      0.509700      2.340167
  H       1.157283      1.955371      0.385415
  H      -0.006143      2.971117      2.196481
  H       0.931689      1.975304      3.322864
  H       0.121884     -1.303531      2.194372
  H       0.662996      0.778231      1.406764
  O      -0.257090     -0.697848      1.540411
40
Coordinates from ORCA-job /home/rudenko/2025/kie/for_orca/m-o2nc6h4chno2ch3_piperazine/orca/ts_opt/ts_opt E -1063.547134722494
  C      -3.367054      0.235016     -1.612195
  C      -1.984894      0.104553     -1.548231
  C      -1.354560     -1.162581     -1.566896
  C      -2.215607     -2.277951     -1.660626
  C      -3.588289     -2.109061     -1.716401
  C      -4.201914     -0.868535     -1.694447
  H      -3.798288      1.233689     -1.594058
  H      -1.370592      0.979855     -1.476342
  H      -1.828704     -3.289446     -1.691095
  H      -5.276884     -0.777388     -1.729041
  N      -4.435878     -3.309115     -1.778750
  O      -5.626362     -3.162418     -2.035851
  O      -3.925389     -4.404862     -1.567692
  C       0.073235     -1.417088     -1.502460
  C       0.593997     -2.830965     -1.568690
  H       1.661692     -2.842485     -1.335915
  H       0.456419     -3.272431     -2.567527
  H       0.080225     -3.480741     -0.848390
  N       1.003908     -0.436139     -1.461225
  O       2.248797     -0.712264     -1.510906
  O       0.674797      0.803890     -1.361454
  H      -0.206801     -1.258672      0.728122
  C       1.964278      3.659688      2.452605
  N       3.293954      3.274532      2.437139
  C       3.678875      2.289641      1.432796
  C       2.732268      1.103580      1.443546
  N       1.316758      1.569003      1.329732
  C       0.958085      2.571590      2.384864
  H       1.719596      4.547728      3.015461
  H       3.954456      4.032545      2.534749
  H       4.686472      1.933989      1.644092
  H       3.678595      2.735895      0.430422
  H       2.936363      0.464935      0.585011
  H       2.806032      0.534718      2.368930
  H       1.156900      1.922464      0.380785
  H      -0.036571      2.951298      2.161508
  H       0.901920      1.990597      3.314829
  H       0.180737     -1.334160      2.212314
  H       0.673640      0.753526      1.416422
  O      -0.214212     -0.746429      1.554863
40
Coordinates from ORCA-job /home/rudenko/2025/kie/for_orca/m-o2nc6h4chno2ch3_piperazine/orca/ts_opt/ts_opt E -1063.547286968142
  C      -3.315394      0.275200     -1.561436
  C      -1.939898      0.112351     -1.507761
  C      -1.327090     -1.161847     -1.553737
  C      -2.203231     -2.262997     -1.652915
  C      -3.573272     -2.073812     -1.690678
  C      -4.166594     -0.814547     -1.651069
  H      -3.732459      1.268601     -1.518269
  H      -1.310102      0.981838     -1.431113
  H      -1.829014     -3.267486     -1.706050
  H      -5.237698     -0.702185     -1.677070
  N      -4.432989     -3.252370     -1.768745
  O      -5.621893     -3.086950     -2.019005
  O      -3.934537     -4.357585     -1.574811
  C       0.096041     -1.436161     -1.506977
  C       0.596039     -2.856064     -1.601269
  H       1.649455     -2.886952     -1.373202
  H       0.452666     -3.275230     -2.599459
  H       0.082862     -3.511661     -0.900179
  N       1.040399     -0.468900     -1.455948
  O       2.281812     -0.758857     -1.502639
  O       0.727690      0.775788     -1.352997
  H      -0.170130     -1.323819      0.755182
  C       1.897355      3.660240      2.406381
  N       3.233839      3.297916      2.406651
  C       3.643193      2.302930      1.421202
  C       2.720026      1.100027      1.448897
  N       1.296676      1.536784      1.322146
  C       0.911846      2.553890      2.353228
  H       1.633120      4.553699      2.952359
  H       3.879339      4.068862      2.495188
  H       4.656750      1.969824      1.643304
  H       3.638273      2.731489      0.410667
  H       2.940359      0.454023      0.600330
  H       2.803098      0.546772      2.382989
  H       1.135061      1.863712      0.362979
  H      -0.087851      2.910828      2.113904
  H       0.858736      1.990991      3.294760
  H       0.222482     -1.372087      2.240136
  H       0.669525      0.713689      1.421773
  O      -0.184492     -0.799943      1.573250
40
Coordinates from ORCA-job /home/rudenko/2025/kie/for_orca/m-o2nc6h4chno2ch3_piperazine/orca/ts_opt/ts_opt E -1063.547368455545
  C      -3.288744      0.291618     -1.523782
  C      -1.907743      0.129120     -1.495037
  C      -1.310869     -1.158819     -1.554769
  C      -2.200626     -2.249905     -1.656754
  C      -3.568820     -2.044146     -1.682086
  C      -4.150941     -0.786697     -1.619153
  H      -3.695215      1.296525     -1.469733
  H      -1.270850      0.987124     -1.413315
  H      -1.838560     -3.261505     -1.722486
  H      -5.224072     -0.668912     -1.630837
  N      -4.444859     -3.220554     -1.761341
  O      -5.634262     -3.039580     -2.000964
  O      -3.958943     -4.333357     -1.579457
  C       0.110079     -1.453093     -1.520221
  C       0.592798     -2.877104     -1.635222
  H       1.655174     -2.923063     -1.415510
  H       0.435931     -3.280067     -2.644043
  H       0.075258     -3.537050     -0.938086
  N       1.067485     -0.500676     -1.464933
  O       2.305150     -0.809622     -1.502187
  O       0.771600      0.750405     -1.370709
  H      -0.134699     -1.380938      0.783805
  C       1.854554      3.669694      2.375239
  N       3.195306      3.323984      2.394087
  C       3.626146      2.319495      1.428776
  C       2.717573      1.104548      1.466753
  N       1.289699      1.519182      1.322648
  C       0.882344      2.550222      2.330968
  H       1.574970      4.568124      2.906089
  H       3.830719      4.104089      2.476456
  H       4.641664      2.004364      1.665803
  H       3.624986      2.731722      0.412229
  H       2.950407      0.450712      0.628080
  H       2.802040      0.564438      2.408077
  H       1.131992      1.823823      0.354725
  H      -0.118849      2.890955      2.074371
  H       0.825604      2.004030      3.282169
  H       0.265196     -1.401256      2.265560
  H       0.673558      0.687358      1.431475
  O      -0.152179     -0.845190      1.593315
40
Coordinates from ORCA-job /home/rudenko/2025/kie/for_orca/m-o2nc6h4chno2ch3_piperazine/orca/ts_opt/ts_opt E -1063.547434029924
  C      -3.250217      0.318040     -1.480016
  C      -1.878441      0.123253     -1.456898
  C      -1.291414     -1.154941     -1.551927
  C      -2.194351     -2.237035     -1.659561
  C      -3.561922     -2.021227     -1.666273
  C      -4.127316     -0.752345     -1.582504
  H      -3.644764      1.320566     -1.402713
  H      -1.228525      0.977688     -1.370551
  H      -1.843725     -3.252596     -1.742336
  H      -5.196299     -0.617275     -1.586479
  N      -4.448474     -3.181638     -1.761243
  O      -5.637215     -2.984844     -1.990097
  O      -3.972742     -4.302748     -1.599886
  C       0.126966     -1.463676     -1.529734
  C       0.595680     -2.889883     -1.663776
  H       1.653513     -2.948675     -1.443960
  H       0.437765     -3.275720     -2.676651
  H       0.072760     -3.554539     -0.980077
  N       1.092898     -0.521296     -1.466506
  O       2.328271     -0.841960     -1.492151
  O       0.808782      0.734102     -1.378777
  H      -0.105606     -1.434677      0.818894
  C       1.808536      3.672964      2.333833
  N       3.152710      3.342692      2.370833
  C       3.603187      2.327590      1.425219
  C       2.709327      1.102218      1.476495
  N       1.276963      1.496596      1.318133
  C       0.849298      2.542494      2.302500
  H       1.514730      4.576993      2.845678
  H       3.778382      4.131340      2.445363
  H       4.620650      2.028673      1.675368
  H       3.604679      2.723265      0.401542
  H       2.953038      0.440421      0.646873
  H       2.796358      0.575321      2.425416
  H       1.121345      1.777801      0.341723
  H      -0.152896      2.867300      2.029593
  H       0.789467      2.015035      3.263868
  H       0.295833     -1.430664      2.300349
  H       0.671594      0.660069      1.440158
  O      -0.128824     -0.888680      1.620277
40
Coordinates from ORCA-job /home/rudenko/2025/kie/for_orca/m-o2nc6h4chno2ch3_piperazine/orca/ts_opt/ts_opt E -1063.547560417019
  C      -3.225906      0.335670     -1.420806
  C      -1.848184      0.148539     -1.420664
  C      -1.274602     -1.149850     -1.535890
  C      -2.181551     -2.217480     -1.663094
  C      -3.544678     -1.986577     -1.661197
  C      -4.106033     -0.723696     -1.543571
  H      -3.615548      1.341124     -1.320702
  H      -1.196963      0.992603     -1.318921
  H      -1.836145     -3.228325     -1.770764
  H      -5.176334     -0.586992     -1.536853
  N      -4.437745     -3.143759     -1.773256
  O      -5.626236     -2.934611     -1.991382
  O      -3.965479     -4.269889     -1.639660
  C       0.140577     -1.468868     -1.525252
  C       0.600920     -2.894338     -1.682871
  H       1.658947     -2.963807     -1.464202
  H       0.442703     -3.258014     -2.702675
  H       0.073457     -3.567873     -1.013730
  N       1.112084     -0.534695     -1.453054
  O       2.345775     -0.865676     -1.467684
  O       0.836746      0.724386     -1.368680
  H      -0.080925     -1.485074      0.868073
  C       1.765695      3.670174      2.277222
  N       3.111926      3.353214      2.336368
  C       3.581107      2.324220      1.415769
  C       2.699080      1.090828      1.483315
  N       1.263427      1.465922      1.307957
  C       0.816983      2.530487      2.261579
  H       1.458775      4.581961      2.767377
  H       3.729778      4.149235      2.401986
  H       4.598817      2.040910      1.681852
  H       3.588450      2.699216      0.384705
  H       2.952787      0.418812      0.665563
  H       2.785906      0.580589      2.440869
  H       1.110983      1.717615      0.322994
  H      -0.184841      2.839381      1.970265
  H       0.751309      2.025668      3.234282
  H       0.319284     -1.452709      2.347486
  H       0.666034      0.628642      1.448763
  O      -0.110380     -0.926964      1.658485
40
Coordinates from ORCA-job /home/rudenko/2025/kie/for_orca/m-o2nc6h4chno2ch3_piperazine/orca/ts_opt/ts_opt E -1063.547771895256
  C      -3.209817      0.344714     -1.393881
  C      -1.836869      0.143429     -1.400482
  C      -1.264827     -1.139427     -1.544245
  C      -2.181292     -2.209859     -1.674846
  C      -3.547594     -1.982050     -1.658241
  C      -4.098819     -0.711860     -1.524006
  H      -3.593174      1.350429     -1.277364
  H      -1.178572      0.988013     -1.294938
  H      -1.841613     -3.225817     -1.794631
  H      -5.167664     -0.568325     -1.509898
  N      -4.448318     -3.133079     -1.782460
  O      -5.638158     -2.916849     -1.987663
  O      -3.983301     -4.264779     -1.667120
  C       0.151713     -1.465735     -1.538099
  C       0.605009     -2.891984     -1.701631
  H       1.660194     -2.969017     -1.471355
  H       0.455349     -3.248816     -2.728658
  H       0.065319     -3.566216     -1.043814
  N       1.126987     -0.537537     -1.460431
  O       2.359381     -0.874965     -1.455347
  O       0.859207      0.725015     -1.394042
  H      -0.063380     -1.520341      0.911741
  C       1.746672      3.676085      2.247620
  N       3.094308      3.364137      2.318431
  C       3.572830      2.323417      1.415865
  C       2.696124      1.086977      1.496347
  N       1.258349      1.453164      1.311750
  C       0.802328      2.532732      2.245399
  H       1.433569      4.594555      2.722949
  H       3.708559      4.162681      2.374470
  H       4.590500      2.048311      1.691766
  H       3.584621      2.683142      0.379430
  H       2.954492      0.407126      0.685294
  H       2.782714      0.586621      2.459544
  H       1.107456      1.685549      0.319650
  H      -0.199047      2.834603      1.943125
  H       0.732209      2.044684      3.226877
  H       0.335814     -1.469663      2.390910
  H       0.664648      0.614340      1.465650
  O      -0.095910     -0.953404      1.696336
40
Coordinates from ORCA-job /home/rudenko/2025/kie/for_orca/m-o2nc6h4chno2ch3_piperazine/orca/ts_opt/ts_opt E -1063.547979652715
  C      -3.192077      0.360006     -1.326191
  C      -1.818379      0.159550     -1.345351
  C      -1.252036     -1.130096     -1.522992
  C      -2.166376     -2.187610     -1.683334
  C      -3.528396     -1.951106     -1.659674
  C      -4.080428     -0.689872     -1.485272
  H      -3.574810      1.360570     -1.178305
  H      -1.161108      0.997262     -1.217886
  H      -1.827073     -3.196368     -1.833365
  H      -5.148862     -0.545480     -1.465315
  N      -4.428455     -3.096906     -1.813766
  O      -5.618401     -2.872584     -2.006859
  O      -3.960389     -4.230794     -1.738023
  C       0.161988     -1.458853     -1.524905
  C       0.617215     -2.881418     -1.706548
  H       1.669479     -2.962027     -1.466183
  H       0.481562     -3.217137     -2.738940
  H       0.070316     -3.566455     -1.069402
  N       1.136204     -0.532727     -1.436623
  O       2.368466     -0.873044     -1.415478
  O       0.869927      0.732348     -1.374890
  H      -0.048059     -1.563508      0.974742
  C       1.712888      3.666962      2.178108
  N       3.060746      3.364627      2.270918
  C       3.552570      2.306390      1.396958
  C       2.682876      1.066436      1.497800
  N       1.243572      1.418265      1.298696
  C       0.774970      2.519045      2.197876
  H       1.390792      4.594466      2.625654
  H       3.670431      4.168138      2.314149
  H       4.569123      2.043740      1.687889
  H       3.571398      2.642645      0.352863
  H       2.948213      0.375060      0.699443
  H       2.768054      0.584558      2.469934
  H       1.094503      1.618361      0.298491
  H      -0.224875      2.806500      1.878746
  H       0.698340      2.058136      3.191140
  H       0.347867     -1.486248      2.452111
  H       0.653795      0.583730      1.476227
  O      -0.085572     -0.984562      1.747556
40
Coordinates from ORCA-job /home/rudenko/2025/kie/for_orca/m-o2nc6h4chno2ch3_piperazine/orca/ts_opt/ts_opt E -1063.548227841949
  C      -3.193637      0.358460     -1.300121
  C      -1.818847      0.162973     -1.327583
  C      -1.249899     -1.117848     -1.528510
  C      -2.165579     -2.179264     -1.701042
  C      -3.531220     -1.951711     -1.668411
  C      -4.082187     -0.690318     -1.474378
  H      -3.576823      1.358018     -1.135670
  H      -1.161766      1.001884     -1.190608
  H      -1.825278     -3.187136     -1.866134
  H      -5.151502     -0.548696     -1.449127
  N      -4.432378     -3.096455     -1.839735
  O      -5.624667     -2.871926     -2.019192
  O      -3.964199     -4.231412     -1.789424
  C       0.167599     -1.445546     -1.530939
  C       0.624459     -2.868354     -1.704782
  H       1.671210     -2.948601     -1.441719
  H       0.509625     -3.204942     -2.742924
  H       0.063099     -3.554325     -1.078990
  N       1.140070     -0.518865     -1.443168
  O       2.372656     -0.857591     -1.398020
  O       0.874779      0.748540     -1.407457
  H      -0.039803     -1.585555      1.029358
  C       1.709732      3.669225      2.149750
  N       3.057569      3.365300      2.248786
  C       3.550206      2.294439      1.389234
  C       2.680258      1.055698      1.504722
  N       1.239929      1.405745      1.303016
  C       0.770907      2.521741      2.184741
  H       1.387309      4.604461      2.586206
  H       3.668021      4.168546      2.281890
  H       4.566479      2.034482      1.685030
  H       3.571375      2.617159      0.340372
  H       2.945661      0.356861      0.711564
  H       2.766485      0.582167      2.481485
  H       1.088732      1.587808      0.296588
  H      -0.228418      2.806685      1.859829
  H       0.691320      2.076574      3.186052
  H       0.355966     -1.493474      2.505508
  H       0.649927      0.574115      1.496877
  O      -0.077170     -0.998860      1.796925
40
Coordinates from ORCA-job /home/rudenko/2025/kie/for_orca/m-o2nc6h4chno2ch3_piperazine/orca/ts_opt/ts_opt E -1063.548454375144
  C      -3.190727      0.364091     -1.240460
  C      -1.816703      0.171845     -1.275382
  C      -1.243788     -1.101500     -1.513276
  C      -2.152636     -2.159070     -1.714142
  C      -3.516847     -1.934023     -1.674769
  C      -4.074196     -0.683721     -1.443088
  H      -3.578609      1.354982     -1.045748
  H      -1.163732      1.008945     -1.117416
  H      -1.807021     -3.159433     -1.907511
  H      -5.143229     -0.545886     -1.413525
  N      -4.411753     -3.078504     -1.875437
  O      -5.605820     -2.853595     -2.040704
  O      -3.935821     -4.212033     -1.862586
  C       0.172495     -1.422469     -1.519540
  C       0.640155     -2.841160     -1.702530
  H       1.681897     -2.921583     -1.418984
  H       0.551454     -3.160124     -2.745223
  H       0.068759     -3.537566     -1.101804
  N       1.138365     -0.492924     -1.419018
  O       2.371839     -0.829164     -1.356408
  O       0.867993      0.775757     -1.386089
  H      -0.039282     -1.618012      1.094120
  C       1.696272      3.658797      2.079468
  N       3.041842      3.357164      2.202637
  C       3.540926      2.266141      1.376473
  C       2.667912      1.031047      1.508794
  N       1.229914      1.375889      1.290054
  C       0.755572      2.514303      2.136184
  H       1.371205      4.603842      2.484747
  H       3.653231      4.159656      2.221070
  H       4.552663      2.012667      1.690231
  H       3.575082      2.563543      0.321996
  H       2.936495      0.321756      0.726649
  H       2.747310      0.573904      2.493165
  H       1.083733      1.528316      0.276168
  H      -0.239799      2.790544      1.793999
  H       0.665276      2.097870      3.147718
  H       0.351206     -1.509227      2.570589
  H       0.637284      0.551884      1.506342
  O      -0.078916     -1.022948      1.853237
40
Coordinates from ORCA-job /home/rudenko/2025/kie/for_orca/m-o2nc6h4chno2ch3_piperazine/orca/ts_opt/ts_opt E -1063.548700134536
  C      -3.206148      0.353466     -1.220233
  C      -1.829695      0.174018     -1.259050
  C      -1.249481     -1.093433     -1.516223
  C      -2.151984     -2.153334     -1.736903
  C      -3.519139     -1.939973     -1.694653
  C      -4.083108     -0.695733     -1.442727
  H      -3.599890      1.339364     -1.008992
  H      -1.182251      1.013290     -1.087359
  H      -1.799967     -3.148019     -1.946629
  H      -5.153600     -0.565907     -1.412171
  N      -4.408575     -3.084633     -1.916888
  O      -5.605391     -2.865526     -2.069032
  O      -3.925574     -4.214149     -1.935412
  C       0.171746     -1.404491     -1.518203
  C       0.648259     -2.822042     -1.681789
  H       1.680731     -2.896872     -1.365566
  H       0.591915     -3.146867     -2.728352
  H       0.059513     -3.519666     -1.093993
  N       1.129315     -0.467404     -1.422531
  O       2.365438     -0.790507     -1.335062
  O       0.851562      0.801371     -1.418752
  H      -0.042121     -1.623618      1.156634
  C       1.708392      3.659347      2.060103
  N       3.053368      3.349654      2.179810
  C       3.544385      2.247383      1.357595
  C       2.667764      1.016212      1.505355
  N       1.228375      1.366941      1.294396
  C       0.763132      2.518312      2.131207
  H       1.388770      4.611877      2.462646
  H       3.668975      4.150678      2.190153
  H       4.557496      1.990203      1.667706
  H       3.574545      2.537306      0.298346
  H       2.930415      0.300926      0.725310
  H       2.753086      0.564341      2.492426
  H       1.074215      1.507730      0.276003
  H      -0.232858      2.797351      1.790937
  H       0.674445      2.112652      3.149102
  H       0.348826     -1.507263      2.631724
  H       0.633856      0.550960      1.528839
  O      -0.078744     -1.023946      1.912222
40
Coordinates from ORCA-job /home/rudenko/2025/kie/for_orca/m-o2nc6h4chno2ch3_piperazine/orca/ts_opt/ts_opt E -1063.548858225655
  C      -3.218465      0.347967     -1.171927
  C      -1.841536      0.179428     -1.216608
  C      -1.250230     -1.072934     -1.508973
  C      -2.142259     -2.136587     -1.756132
  C      -3.511109     -1.936216     -1.707146
  C      -4.085987     -0.703982     -1.421490
  H      -3.621191      1.324678     -0.933752
  H      -1.201229      1.020549     -1.025224
  H      -1.780496     -3.123219     -1.991686
  H      -5.157453     -0.584035     -1.386624
  N      -4.389985     -3.084560     -1.957006
  O      -5.590163     -2.872281     -2.093347
  O      -3.895646     -4.208980     -2.009772
  C       0.171621     -1.371172     -1.509855
  C       0.662943     -2.784730     -1.672816
  H       1.686933     -2.858480     -1.325486
  H       0.643927     -3.095618     -2.722552
  H       0.059482     -3.492130     -1.113712
  N       1.119067     -0.428438     -1.400560
  O       2.356391     -0.746014     -1.296901
  O       0.832384      0.840666     -1.395267
  H      -0.053084     -1.644791      1.218263
  C       1.714085      3.649615      1.996568
  N       3.055783      3.336952      2.137340
  C       3.545949      2.214007      1.350390
  C       2.659040      0.992222      1.512152
  N       1.224124      1.345545      1.284770
  C       0.761184      2.518007      2.090625
  H       1.397538      4.611417      2.366371
  H       3.675882      4.131907      2.129234
  H       4.552684      1.958628      1.678065
  H       3.590758      2.477929      0.288073
  H       2.921336      0.268524      0.740334
  H       2.734958      0.554242      2.505196
  H       1.075692      1.464241      0.260347
  H      -0.230603      2.793755      1.736810
  H       0.663218      2.139674      3.116954
  H       0.331344     -1.522767      2.696511
  H       0.623084      0.538667      1.538515
  O      -0.089975     -1.041684      1.970320
40
Coordinates from ORCA-job /home/rudenko/2025/kie/for_orca/m-o2nc6h4chno2ch3_piperazine/orca/ts_opt/ts_opt E -1063.540955301380
  C      -3.160578      0.392769     -1.223747
  C      -1.788471      0.193202     -1.224093
  C      -1.224011     -1.082376     -1.475962
  C      -2.135757     -2.130849     -1.744312
  C      -3.498782     -1.895476     -1.740384
  C      -4.053250     -0.665473     -1.473219
  H      -3.536698      1.390627     -1.023229
  H      -1.124770      1.051191     -1.041824
  H      -1.800393     -3.126019     -1.967538
  H      -5.120715     -0.515478     -1.486188
  N      -4.394546     -3.007548     -2.037206
  O      -5.584560     -2.802137     -2.193866
  O      -3.916264     -4.102949     -2.150371
  C       0.190753     -1.383147     -1.440509
  C       0.709936     -2.783626     -1.562800
  H       1.742890     -2.838466     -1.214871
  H       0.698847     -3.120733     -2.598559
  H       0.116874     -3.478803     -0.980893
  N       1.090818     -0.412213     -1.339909
  O       2.338866     -0.662550     -1.242208
  O       0.727364      0.833873     -1.338744
  H      -0.082205     -1.710388      1.371802
  C       1.686387      3.587913      2.018841
  N       3.034743      3.347086      2.014056
  C       3.471413      2.263492      1.178580
  C       2.653643      0.983166      1.429734
  N       1.200396      1.285426      1.337215
  C       0.772659      2.412935      2.184124
  H       1.381570      4.525891      2.425209
  H       3.622859      4.182291      1.944416
  H       4.513411      2.062655      1.387301
  H       3.385735      2.542468      0.128097
  H       2.857362      0.274817      0.641754
  H       2.848835      0.535558      2.401554
  H       1.007690      1.409527      0.331259
  H      -0.244540      2.655260      1.922929
  H       0.769835      2.003061      3.194950
  H       0.326523     -1.580743      2.835797
  H       0.614400      0.468103      1.633518
  O      -0.098270     -1.102337      2.119297
40
Coordinates from ORCA-job /home/rudenko/2025/kie/for_orca/m-o2nc6h4chno2ch3_piperazine/orca/ts_opt/ts_opt E -1063.545643895626
  C      -3.209067      0.354652     -1.166661
  C      -1.840790      0.191995     -1.170332
  C      -1.230493     -1.057392     -1.457717
  C      -2.097777     -2.121222     -1.751854
  C      -3.465910     -1.924845     -1.741257
  C      -4.052611     -0.708809     -1.438883
  H      -3.623585      1.330602     -0.938004
  H      -1.227640      1.049078     -0.962744
  H      -1.727120     -3.107906     -1.986213
  H      -5.119287     -0.593443     -1.442992
  N      -4.385557     -3.023146     -2.075850
  O      -5.600212     -2.755997     -2.168146
  O      -3.943428     -4.171269     -2.271810
  C       0.198638     -1.339393     -1.429774
  C       0.687873     -2.745400     -1.522857
  H       1.742261     -2.804650     -1.202719
  H       0.634900     -3.128396     -2.551556
  H       0.084626     -3.392127     -0.896990
  N       1.145970     -0.391492     -1.352768
  O       2.395041     -0.687843     -1.240182
  O       0.843092      0.877622     -1.378565
  H      -0.083226     -1.664889      1.278359
  C       1.688315      3.597707      2.006266
  N       3.044244      3.337295      2.018844
  C       3.495155      2.225360      1.195299
  C       2.665910      0.965599      1.444078
  N       1.213839      1.286493      1.309307
  C       0.772414      2.428172      2.157011
  H       1.375192      4.549150      2.408952
  H       3.635968      4.157246      1.953743
  H       4.536897      2.009262      1.422444
  H       3.423845      2.490729      0.133972
  H       2.896196      0.240734      0.660747
  H       2.833275      0.528698      2.428132
  H       1.055727      1.424624      0.297376
  H      -0.250613      2.673364      1.875417
  H       0.751632      2.026055      3.176500
  H       0.251093     -1.547900      2.768324
  H       0.619315      0.487500      1.579317
  O      -0.134103     -1.065817      2.033785
40
Coordinates from ORCA-job /home/rudenko/2025/kie/for_orca/m-o2nc6h4chno2ch3_piperazine/orca/ts_opt/ts_opt E -1063.544318199008
  C      -3.266431      0.349432     -1.173030
  C      -1.890602      0.237914     -1.168539
  C      -1.245292     -0.969213     -1.472573
  C      -2.082115     -2.061500     -1.759909
  C      -3.448063     -1.919922     -1.748767
  C      -4.075772     -0.727287     -1.457925
  H      -3.712306      1.303520     -0.941477
  H      -1.307769      1.095577     -0.950131
  H      -1.676846     -3.030422     -1.990453
  H      -5.145763     -0.650389     -1.462332
  N      -4.258827     -3.061981     -2.077784
  O      -5.461489     -2.929642     -2.176291
  O      -3.714629     -4.137440     -2.216578
  C       0.181726     -1.260915     -1.434033
  C       0.650409     -2.692459     -1.523117
  H       1.727508     -2.769345     -1.225037
  H       0.557702     -3.107164     -2.558879
  H       0.043884     -3.312668     -0.862383
  N       1.140114     -0.319987     -1.342939
  O       2.384123     -0.633877     -1.217842
  O       0.854352      0.957372     -1.356882
  H      -0.110666     -1.644753      1.313080
  C       1.721394      3.587998      1.971090
  N       3.069943      3.280326      1.978332
  C       3.489770      2.128405      1.179546
  C       2.637798      0.915654      1.453620
  N       1.198057      1.276898      1.318148
  C       0.790300      2.447677      2.159322
  H       1.434760      4.561160      2.355618
  H       3.677398      4.074154      1.889426
  H       4.523298      1.876014      1.406819
  H       3.411955      2.366093      0.103749
  H       2.865702      0.190976      0.664785
  H       2.791017      0.493367      2.447500
  H       1.040049      1.425865      0.300014
  H      -0.231589      2.715612      1.882090
  H       0.777986      2.068801      3.199240
  H       0.223418     -1.551417      2.818037
  H       0.599471      0.487285      1.598976
  O      -0.163974     -1.059718      2.077509
40
Coordinates from ORCA-job /home/rudenko/2025/kie/for_orca/m-o2nc6h4chno2ch3_piperazine/orca/ts_opt/ts_opt E -1063.547264531427
  C      -3.256893      0.355653     -1.182843
  C      -1.872360      0.230467     -1.176957
  C      -1.234353     -0.976813     -1.494209
  C      -2.086842     -2.075166     -1.779137
  C      -3.462890     -1.924676     -1.768936
  C      -4.080363     -0.712732     -1.480333
  H      -3.696110      1.311800     -0.946894
  H      -1.268233      1.089175     -0.952877
  H      -1.688280     -3.044021     -2.014019
  H      -5.158115     -0.626183     -1.484772
  N      -4.293828     -3.075568     -2.102012
  O      -5.504020     -2.910524     -2.204235
  O      -3.764213     -4.191939     -2.230312
  C       0.191647     -1.258331     -1.433076
  C       0.677496     -2.674155     -1.494406
  H       1.730880     -2.706359     -1.214596
  H       0.587026     -3.114176     -2.495862
  H       0.094462     -3.289188     -0.796934
  N       1.123985     -0.297673     -1.327802
  O       2.366754     -0.593913     -1.216480
  O       0.821176      0.981358     -1.320562
  H      -0.096278     -1.663640      1.324819
  C       1.726370      3.586677      1.960285
  N       3.075496      3.281758      1.954268
  C       3.484019      2.126749      1.161461
  C       2.630745      0.916784      1.453128
  N       1.183004      1.269183      1.327541
  C       0.804341      2.442732      2.172938
  H       1.449032      4.555319      2.348093
  H       3.683011      4.078750      1.853919
  H       4.519628      1.875623      1.380522
  H       3.393139      2.355309      0.087508
  H       2.850792      0.198413      0.665746
  H       2.793715      0.509703      2.450362
  H       0.988651      1.419331      0.305438
  H      -0.218815      2.707175      1.925129
  H       0.828464      2.069012      3.211617
  H       0.241493     -1.596390      2.823398
  H       0.591977      0.465173      1.613155
  O      -0.155711     -1.094699      2.097928
40
Coordinates from ORCA-job /home/rudenko/2025/kie/for_orca/m-o2nc6h4chno2ch3_piperazine/orca/ts_opt/ts_opt E -1063.547398989753
  C      -3.272535      0.359928     -1.218571
  C      -1.889344      0.231226     -1.200624
  C      -1.255808     -0.997284     -1.496069
  C      -2.109160     -2.087983     -1.779353
  C      -3.479328     -1.928344     -1.783865
  C      -4.095877     -0.716788     -1.506953
  H      -3.709563      1.319453     -0.996847
  H      -1.289921      1.089414     -0.977988
  H      -1.718385     -3.065102     -1.999202
  H      -5.170351     -0.631559     -1.519955
  N      -4.302439     -3.092007     -2.112761
  O      -5.505642     -2.946489     -2.227344
  O      -3.763420     -4.177180     -2.230322
  C       0.173556     -1.295729     -1.437735
  C       0.629555     -2.715801     -1.496740
  H       1.668775     -2.745317     -1.236182
  H       0.513590     -3.152946     -2.482749
  H       0.056297     -3.334843     -0.793271
  N       1.134999     -0.359251     -1.347288
  O       2.378335     -0.683860     -1.276195
  O       0.862967      0.922654     -1.325488
  H      -0.112047     -1.649802      1.287488
  C       1.732072      3.617231      2.010664
  N       3.096015      3.341462      1.978065
  C       3.512725      2.190144      1.166867
  C       2.674018      0.945781      1.467856
  N       1.206182      1.276872      1.349551
  C       0.828848      2.441512      2.220456
  H       1.440286      4.580410      2.422950
  H       3.693829      4.158275      1.879015
  H       4.566705      1.961303      1.367371
  H       3.400713      2.426396      0.097138
  H       2.894292      0.209046      0.688406
  H       2.857558      0.549836      2.469034
  H       0.985683      1.430034      0.326305
  H      -0.212457      2.688704      2.003201
  H       0.887683      2.051090      3.249284
  H       0.241064     -1.597132      2.780371
  H       0.610152      0.470673      1.617669
  O      -0.159620     -1.084028      2.063810
40
Coordinates from ORCA-job /home/rudenko/2025/kie/for_orca/m-o2nc6h4chno2ch3_piperazine/orca/ts_opt/ts_opt E -1063.548918471107
  C      -3.260519      0.348500     -1.223774
  C      -1.876293      0.218278     -1.197434
  C      -1.243998     -1.014768     -1.484697
  C      -2.091052     -2.096999     -1.784893
  C      -3.463422     -1.932150     -1.803260
  C      -4.082660     -0.724226     -1.522475
  H      -3.698834      1.310647     -1.002851
  H      -1.274985      1.072543     -0.963640
  H      -1.697590     -3.072619     -2.004918
  H      -5.158154     -0.638349     -1.543243
  N      -4.298053     -3.092308     -2.144767
  O      -5.506440     -2.917534     -2.266901
  O      -3.764329     -4.190060     -2.284195
  C       0.185168     -1.297355     -1.424523
  C       0.658356     -2.727305     -1.505888
  H       1.723218     -2.777450     -1.274952
  H       0.499374     -3.159158     -2.512943
  H       0.114465     -3.355042     -0.794375
  N       1.127807     -0.351348     -1.337107
  O       2.370689     -0.656348     -1.286655
  O       0.839597      0.916777     -1.305351
  H      -0.150912     -1.625152      1.348812
  C       1.760879      3.611489      2.020317
  N       3.105173      3.316670      1.936469
  C       3.470845      2.173253      1.116844
  C       2.633034      0.957439      1.454369
  N       1.183912      1.305400      1.386733
  C       0.854809      2.461821      2.271623
  H       1.504877      4.567049      2.440940
  H       3.709115      4.109250      1.814214
  H       4.514340      1.928286      1.276194
  H       3.326016      2.408154      0.054018
  H       2.823274      0.216133      0.680082
  H       2.838565      0.573007      2.452418
  H       0.924509      1.464373      0.379876
  H      -0.182525      2.721517      2.107380
  H       0.956156      2.068971      3.293309
  H       0.218694     -1.564333      2.840496
  H       0.595685      0.495392      1.667380
  O      -0.188793     -1.052444      2.127368
40
Coordinates from ORCA-job /home/rudenko/2025/kie/for_orca/m-o2nc6h4chno2ch3_piperazine/orca/ts_opt/ts_opt E -1063.549091006545
  C      -3.257720      0.353710     -1.250232
  C      -1.874993      0.220105     -1.215143
  C      -1.246178     -1.014582     -1.492045
  C      -2.099523     -2.095311     -1.795216
  C      -3.468467     -1.920937     -1.829357
  C      -4.084945     -0.716756     -1.553399
  H      -3.689144      1.320307     -1.037130
  H      -1.269426      1.078574     -0.981973
  H      -1.710159     -3.064081     -2.021909
  H      -5.154710     -0.611725     -1.599043
  N      -4.296418     -3.077385     -2.177967
  O      -5.503206     -2.916828     -2.296555
  O      -3.758682     -4.177319     -2.304011
  C       0.183668     -1.299646     -1.432867
  C       0.650739     -2.729171     -1.515509
  H       1.714884     -2.776957     -1.304227
  H       0.476860     -3.165264     -2.505951
  H       0.121381     -3.354007     -0.789037
  N       1.128967     -0.354982     -1.344196
  O       2.375349     -0.668011     -1.320335
  O       0.840030      0.918441     -1.292487
  H      -0.159703     -1.662063      1.452865
  C       1.748211      3.615031      2.012064
  N       3.100963      3.345663      1.888231
  C       3.460789      2.185854      1.077361
  C       2.646771      0.954800      1.463308
  N       1.188345      1.283358      1.433728
  C       0.870770      2.447703      2.317556
  H       1.483645      4.583593      2.422702
  H       3.688818      4.158497      1.729580
  H       4.520403      1.963253      1.210100
  H       3.281563      2.396981      0.014045
  H       2.827600      0.195529      0.705649
  H       2.883991      0.597437      2.464409
  H       0.895828      1.431295      0.442471
  H      -0.183388      2.689019      2.186330
  H       1.018416      2.071324      3.341679
  H       0.225105     -1.591604      2.937890
  H       0.611141      0.469736      1.733307
  O      -0.187576     -1.083584      2.225316
40
Coordinates from ORCA-job /home/rudenko/2025/kie/for_orca/m-o2nc6h4chno2ch3_piperazine/orca/ts_opt/ts_opt E -1063.548756984315
  C      -3.282329      0.337920     -1.237911
  C      -1.901503      0.194924     -1.173166
  C      -1.261377     -1.031730     -1.477024
  C      -2.101204     -2.100696     -1.841130
  C      -3.475003     -1.934250     -1.896877
  C      -4.102499     -0.731880     -1.588046
  H      -3.727017      1.289361     -0.989255
  H      -1.306962      1.043784     -0.894116
  H      -1.707459     -3.086105     -2.076930
  H      -5.181780     -0.646204     -1.632253
  N      -4.291724     -3.089064     -2.304518
  O      -5.494955     -2.932060     -2.437319
  O      -3.736082     -4.162444     -2.499087
  C       0.171198     -1.300095     -1.402999
  C       0.648424     -2.719893     -1.457948
  H       1.701654     -2.751325     -1.221649
  H       0.502788     -3.165472     -2.442929
  H       0.105001     -3.346496     -0.740000
  N       1.106248     -0.346373     -1.325343
  O       2.355891     -0.641938     -1.306023
  O       0.810013      0.921013     -1.281896
  H      -0.159685     -1.640293      1.551246
  C       1.789373      3.618402      2.018437
  N       3.127788      3.332348      1.834545
  C       3.442657      2.173982      1.004872
  C       2.638432      0.961494      1.433304
  N       1.186549      1.302555      1.462488
  C       0.915361      2.468552      2.362394
  H       1.557916      4.580828      2.444687
  H       3.718013      4.127388      1.656855
  H       4.499919      1.938960      1.093918
  H       3.226687      2.383701     -0.050835
  H       2.790145      0.178137      0.691697
  H       2.911623      0.626389      2.433092
  H       0.845380      1.452255      0.491922
  H      -0.137469      2.720007      2.284726
  H       1.105752      2.091957      3.377458
  H       0.257146     -1.556893      3.029979
  H       0.624708      0.493435      1.786052
  O      -0.171616     -1.054181      2.319580
40
Coordinates from ORCA-job /home/rudenko/2025/kie/for_orca/m-o2nc6h4chno2ch3_piperazine/orca/ts_opt/ts_opt E -1063.548964258877
  C      -3.280926      0.334101     -1.219026
  C      -1.901401      0.200791     -1.156364
  C      -1.259296     -1.016655     -1.475131
  C      -2.094348     -2.082473     -1.856601
  C      -3.463769     -1.913026     -1.917535
  C      -4.092778     -0.723604     -1.592387
  H      -3.725573      1.284359     -0.960072
  H      -1.306976      1.049696     -0.867576
  H      -1.694371     -3.040531     -2.116141
  H      -5.163957     -0.634151     -1.646404
  N      -4.282733     -3.057991     -2.341940
  O      -5.493440     -2.895220     -2.447511
  O      -3.726912     -4.130313     -2.567574
  C       0.171939     -1.284814     -1.407224
  C       0.647931     -2.714575     -1.458387
  H       1.701746     -2.761580     -1.198897
  H       0.515267     -3.157950     -2.456649
  H       0.088801     -3.342101     -0.758009
  N       1.101828     -0.328222     -1.343179
  O       2.355611     -0.623076     -1.332948
  O       0.796078      0.941601     -1.309317
  H      -0.123743     -1.701039      1.679007
  C       1.765912      3.612899      1.968268
  N       3.109313      3.340866      1.781097
  C       3.430373      2.165031      0.980862
  C       2.646397      0.948556      1.453249
  N       1.185870      1.268557      1.484446
  C       0.905494      2.459584      2.351655
  H       1.525372      4.585832      2.370839
  H       3.687716      4.146287      1.573655
  H       4.494020      1.948171      1.065189
  H       3.203839      2.345449     -0.076708
  H       2.808400      0.142168      0.741092
  H       2.929794      0.652720      2.463661
  H       0.829014      1.386888      0.513372
  H      -0.151515      2.697911      2.272873
  H       1.104334      2.113927      3.376547
  H       0.269991     -1.579594      3.159016
  H       0.637389      0.458731      1.837947
  O      -0.150692     -1.097211      2.432807
40
Coordinates from ORCA-job /home/rudenko/2025/kie/for_orca/m-o2nc6h4chno2ch3_piperazine/orca/ts_opt/ts_opt E -1063.549418679971
  C      -3.275076      0.339081     -1.196935
  C      -1.893835      0.197397     -1.148930
  C      -1.259748     -1.026451     -1.470748
  C      -2.105590     -2.090497     -1.844515
  C      -3.476831     -1.913563     -1.892866
  C      -4.098280     -0.718231     -1.562258
  H      -3.712895      1.291571     -0.931420
  H      -1.292095      1.044456     -0.866963
  H      -1.711299     -3.054273     -2.110227
  H      -5.170001     -0.614414     -1.611484
  N      -4.301491     -3.052045     -2.309661
  O      -5.510230     -2.892772     -2.408088
  O      -3.752353     -4.133306     -2.528459
  C       0.173690     -1.294563     -1.411818
  C       0.655948     -2.718776     -1.454677
  H       1.694491     -2.760480     -1.149655
  H       0.576007     -3.149395     -2.459204
  H       0.068393     -3.357605     -0.787567
  N       1.103331     -0.336286     -1.354083
  O       2.356137     -0.627538     -1.313455
  O       0.799120      0.935683     -1.351195
  H      -0.100859     -1.713499      1.605740
  C       1.757986      3.616122      1.968495
  N       3.105147      3.339235      1.827420
  C       3.450544      2.173488      1.022389
  C       2.649199      0.955743      1.450902
  N       1.189386      1.276399      1.444722
  C       0.879026      2.463667      2.306114
  H       1.505536      4.586059      2.371741
  H       3.692143      4.142370      1.651125
  H       4.508534      1.951188      1.141953
  H       3.261816      2.369049     -0.040552
  H       2.824813      0.158200      0.732249
  H       2.903504      0.640806      2.462564
  H       0.861218      1.394423      0.464035
  H      -0.172900      2.706161      2.182896
  H       1.030511      2.111878      3.337208
  H       0.283193     -1.593081      3.089058
  H       0.638158      0.464808      1.785874
  O      -0.134350     -1.111009      2.360275
40
Coordinates from ORCA-job /home/rudenko/2025/kie/for_orca/m-o2nc6h4chno2ch3_piperazine/orca/ts_opt/ts_opt E -1063.549530939993
  C      -3.275263      0.337977     -1.224473
  C      -1.895980      0.201722     -1.179524
  C      -1.262846     -1.022388     -1.479897
  C      -2.106395     -2.091265     -1.826801
  C      -3.476448     -1.919501     -1.869475
  C      -4.095893     -0.721398     -1.565659
  H      -3.712588      1.295464     -0.982470
  H      -1.292853      1.052529     -0.918669
  H      -1.711782     -3.057444     -2.071990
  H      -5.167885     -0.627395     -1.607278
  N      -4.312973     -3.075669     -2.241693
  O      -5.521694     -2.890761     -2.363803
  O      -3.774240     -4.160069     -2.417527
  C       0.163862     -1.299257     -1.411542
  C       0.641204     -2.727732     -1.471146
  H       1.681313     -2.781557     -1.159031
  H       0.564650     -3.143181     -2.487010
  H       0.048786     -3.372636     -0.817437
  N       1.097301     -0.344502     -1.334831
  O       2.346214     -0.645380     -1.283146
  O       0.795131      0.925144     -1.326141
  H      -0.096753     -1.696113      1.518273
  C       1.758231      3.619329      1.992307
  N       3.110724      3.342884      1.880619
  C       3.473765      2.187559      1.065989
  C       2.657446      0.962073      1.448687
  N       1.197675      1.288393      1.422088
  C       0.870332      2.463208      2.291959
  H       1.495480      4.586661      2.398964
  H       3.700802      4.153953      1.727884
  H       4.531183      1.961329      1.209931
  H       3.311342      2.401015      0.001426
  H       2.837651      0.188582      0.705656
  H       2.892105      0.612635      2.454049
  H       0.890293      1.419146      0.434532
  H      -0.178062      2.710947      2.142765
  H       0.994372      2.095495      3.320984
  H       0.304604     -1.598642      2.996870
  H       0.639226      0.474871      1.744616
  O      -0.122035     -1.106026      2.281946
40
Coordinates from ORCA-job /home/rudenko/2025/kie/for_orca/m-o2nc6h4chno2ch3_piperazine/orca/ts_opt/ts_opt E -1063.549702791791
  C      -3.262154      0.345038     -1.235335
  C      -1.882193      0.193589     -1.198198
  C      -1.262628     -1.048905     -1.478893
  C      -2.122957     -2.119842     -1.801510
  C      -3.492663     -1.933545     -1.839536
  C      -4.098491     -0.715138     -1.554871
  H      -3.689264      1.311484     -1.004979
  H      -1.268691      1.042020     -0.952128
  H      -1.737291     -3.090189     -2.038557
  H      -5.171369     -0.607000     -1.591557
  N      -4.333897     -3.074213     -2.200993
  O      -5.537618     -2.898922     -2.331506
  O      -3.808790     -4.183822     -2.331496
  C       0.165230     -1.332919     -1.420472
  C       0.639455     -2.756479     -1.504857
  H       1.678678     -2.814455     -1.197152
  H       0.561143     -3.152096     -2.526022
  H       0.045254     -3.409330     -0.862196
  N       1.105593     -0.385071     -1.334750
  O       2.350646     -0.692563     -1.274613
  O       0.810368      0.884450     -1.318134
  H      -0.109583     -1.677589      1.425387
  C       1.760444      3.633760      2.028534
  N       3.111908      3.354934      1.934639
  C       3.485684      2.214892      1.106331
  C       2.659936      0.986573      1.452444
  N       1.203667      1.316887      1.407626
  C       0.861374      2.477481      2.290129
  H       1.493318      4.593893      2.443106
  H       3.706169      4.162552      1.805951
  H       4.536790      1.982617      1.263842
  H       3.341433      2.448826      0.043741
  H       2.841741      0.225542      0.694962
  H       2.879999      0.612271      2.452211
  H       0.922965      1.461315      0.416050
  H      -0.181536      2.730941      2.122385
  H       0.960807      2.093649      3.315548
  H       0.317740     -1.588369      2.896361
  H       0.638727      0.498478      1.705799
  O      -0.119943     -1.090745      2.192709
40
Coordinates from ORCA-job /home/rudenko/2025/kie/for_orca/m-o2nc6h4chno2ch3_piperazine/orca/ts_opt/ts_opt E -1063.549784774476
  C      -3.262770      0.336064     -1.242399
  C      -1.883134      0.182260     -1.213907
  C      -1.267451     -1.060170     -1.483892
  C      -2.132306     -2.128077     -1.791901
  C      -3.502152     -1.939157     -1.820921
  C      -4.103246     -0.722700     -1.545081
  H      -3.685641      1.307314     -1.022540
  H      -1.264751      1.030429     -0.981558
  H      -1.752715     -3.110239     -2.017534
  H      -5.174746     -0.614024     -1.575082
  N      -4.358376     -3.089989     -2.149428
  O      -5.560532     -2.888903     -2.298946
  O      -3.843975     -4.194726     -2.259888
  C       0.158227     -1.350346     -1.427914
  C       0.632364     -2.773773     -1.528832
  H       1.661771     -2.838898     -1.195793
  H       0.583491     -3.144949     -2.558544
  H       0.023202     -3.442493     -0.914891
  N       1.102431     -0.403405     -1.330658
  O       2.345172     -0.716743     -1.258927
  O       0.811250      0.866608     -1.314334
  H      -0.105215     -1.667091      1.346479
  C       1.761428      3.645554      2.048389
  N       3.115000      3.362311      1.987123
  C       3.508231      2.230813      1.153100
  C       2.671039      1.001676      1.459309
  N       1.217210      1.338580      1.387529
  C       0.853308      2.489337      2.272836
  H       1.483855      4.605114      2.462715
  H       3.712519      4.171070      1.882647
  H       4.555316      1.992448      1.336485
  H       3.392267      2.479656      0.089259
  H       2.861767      0.254204      0.690715
  H       2.868113      0.605941      2.455353
  H       0.966462      1.494174      0.390522
  H      -0.184487      2.748945      2.075192
  H       0.920353      2.093072      3.296794
  H       0.337454     -1.584190      2.815594
  H       0.647271      0.518626      1.665983
  O      -0.108007     -1.084321      2.116944
40
Coordinates from ORCA-job /home/rudenko/2025/kie/for_orca/m-o2nc6h4chno2ch3_piperazine/orca/ts_opt/ts_opt E -1063.549771236553
  C      -3.263170      0.344075     -1.207734
  C      -1.884951      0.181169     -1.185911
  C      -1.274572     -1.063946     -1.475623
  C      -2.144297     -2.127799     -1.791493
  C      -3.513679     -1.936524     -1.809580
  C      -4.110388     -0.713383     -1.518623
  H      -3.684595      1.309604     -0.967019
  H      -1.262285      1.023151     -0.944917
  H      -1.764645     -3.103998     -2.034637
  H      -5.183956     -0.601073     -1.537236
  N      -4.362457     -3.080100     -2.147627
  O      -5.560344     -2.891978     -2.295082
  O      -3.844237     -4.192183     -2.254783
  C       0.151775     -1.356531     -1.425056
  C       0.626425     -2.776396     -1.526705
  H       1.645613     -2.851243     -1.153512
  H       0.616779     -3.133613     -2.565883
  H      -0.011827     -3.446587     -0.950207
  N       1.093156     -0.411774     -1.330361
  O       2.335108     -0.721958     -1.238014
  O       0.797076      0.853103     -1.335788
  H      -0.065293     -1.690365      1.309491
  C       1.749167      3.649925      2.027286
  N       3.105350      3.363597      2.017606
  C       3.528123      2.234580      1.192646
  C       2.681262      1.004540      1.468718
  N       1.227125      1.339180      1.351002
  C       0.829084      2.497675      2.216063
  H       1.458104      4.609035      2.431192
  H       3.706538      4.172693      1.935047
  H       4.568748      1.995541      1.412369
  H       3.452124      2.485406      0.126322
  H       2.891279      0.256907      0.703619
  H       2.848399      0.608175      2.469667
  H       1.005797      1.482978      0.340398
  H      -0.198946      2.759029      1.974287
  H       0.849858      2.107775      3.243635
  H       0.377018     -1.594443      2.774938
  H       0.658061      0.518473      1.625777
  O      -0.072324     -1.102717      2.075729
40
Coordinates from ORCA-job /home/rudenko/2025/kie/for_orca/m-o2nc6h4chno2ch3_piperazine/orca/ts_opt/ts_opt E -1063.549768430243
  C      -3.272694      0.325524     -1.181527
  C      -1.892824      0.168402     -1.172842
  C      -1.283275     -1.071647     -1.477353
  C      -2.154025     -2.129150     -1.806425
  C      -3.525322     -1.937289     -1.814165
  C      -4.119066     -0.721246     -1.506018
  H      -3.691586      1.293195     -0.930476
  H      -1.268314      1.007822     -0.926028
  H      -1.775822     -3.102048     -2.065192
  H      -5.191612     -0.610324     -1.517493
  N      -4.389023     -3.073972     -2.156684
  O      -5.590836     -2.866101     -2.296404
  O      -3.879577     -4.178881     -2.288647
  C       0.144618     -1.362912     -1.429817
  C       0.626981     -2.782196     -1.529663
  H       1.612905     -2.862608     -1.092567
  H       0.692386     -3.114656     -2.568894
  H      -0.043473     -3.470368     -1.010788
  N       1.084408     -0.412580     -1.331510
  O       2.326286     -0.721279     -1.215991
  O       0.787959      0.860971     -1.347020
  H      -0.028645     -1.715889      1.319057
  C       1.748868      3.657109      2.011214
  N       3.102667      3.367760      2.030865
  C       3.538615      2.240914      1.214938
  C       2.691626      1.011772      1.481854
  N       1.240433      1.343486      1.335886
  C       0.822126      2.508050      2.181290
  H       1.451248      4.617082      2.406265
  H       3.703901      4.174793      1.955968
  H       4.573823      2.002631      1.450948
  H       3.479458      2.492489      0.147817
  H       2.914522      0.260469      0.724220
  H       2.841652      0.620202      2.487339
  H       1.045010      1.477520      0.320531
  H      -0.197467      2.770827      1.907778
  H       0.810028      2.124188      3.211704
  H       0.422791     -1.596907      2.784302
  H       0.675275      0.522904      1.615252
  O      -0.034027     -1.118054      2.078279
40
Coordinates from ORCA-job /home/rudenko/2025/kie/for_orca/m-o2nc6h4chno2ch3_piperazine/orca/ts_opt/ts_opt E -1063.549756103181
  C      -3.278031      0.324967     -1.130235
  C      -1.900824      0.156443     -1.121627
  C      -1.292965     -1.075183     -1.461871
  C      -2.164322     -2.122047     -1.818949
  C      -3.534894     -1.928708     -1.819658
  C      -4.128030     -0.717202     -1.479301
  H      -3.697575      1.282452     -0.849069
  H      -1.273287      0.989027     -0.853552
  H      -1.785984     -3.091887     -2.101405
  H      -5.201178     -0.603829     -1.482992
  N      -4.392638     -3.056278     -2.190017
  O      -5.591895     -2.853343     -2.324385
  O      -3.878473     -4.161995     -2.348819
  C       0.134523     -1.365257     -1.416168
  C       0.622112     -2.780406     -1.515287
  H       1.589277     -2.876569     -1.027291
  H       0.741533     -3.089456     -2.563351
  H      -0.076125     -3.475461     -1.051543
  N       1.069568     -0.418209     -1.324132
  O       2.310060     -0.722002     -1.194122
  O       0.767561      0.843191     -1.366407
  H       0.006787     -1.741444      1.317813
  C       1.735518      3.661755      1.973367
  N       3.093522      3.377789      2.035970
  C       3.558527      2.242406      1.238315
  C       2.706781      1.013649      1.493135
  N       1.254068      1.336417      1.306969
  C       0.807288      2.509905      2.126364
  H       1.420408      4.626312      2.353237
  H       3.693975      4.189973      1.972016
  H       4.591612      2.010391      1.505940
  H       3.527697      2.481821      0.166425
  H       2.945403      0.253083      0.750510
  H       2.832777      0.636496      2.507000
  H       1.077693      1.452164      0.282563
  H      -0.205821      2.766246      1.818793
  H       0.763815      2.138136      3.159834
  H       0.459619     -1.598916      2.775267
  H       0.690977      0.518380      1.589959
  O       0.000945     -1.132812      2.066706
40
Coordinates from ORCA-job /home/rudenko/2025/kie/for_orca/m-o2nc6h4chno2ch3_piperazine/orca/ts_opt/ts_opt E -1063.549804529454
  C      -3.283377      0.310190     -1.095399
  C      -1.904649      0.145484     -1.098416
  C      -1.301514     -1.084490     -1.461419
  C      -2.176741     -2.122902     -1.836920
  C      -3.547620     -1.925620     -1.828520
  C      -4.135697     -0.720169     -1.463782
  H      -3.700267      1.263455     -0.795200
  H      -1.276038      0.968425     -0.814577
  H      -1.800236     -3.081820     -2.142345
  H      -5.208005     -0.606294     -1.459483
  N      -4.416156     -3.041355     -2.216064
  O      -5.618376     -2.826833     -2.338145
  O      -3.908566     -4.139001     -2.405278
  C       0.128084     -1.375774     -1.420691
  C       0.619983     -2.789636     -1.520554
  H       1.555848     -2.894697     -0.984242
  H       0.799964     -3.077784     -2.559106
  H      -0.101408     -3.493691     -1.108251
  N       1.063952     -0.425754     -1.322218
  O       2.303889     -0.733706     -1.181399
  O       0.764762      0.848147     -1.356953
  H       0.048351     -1.771768      1.339220
  C       1.730198      3.668889      1.945306
  N       3.083880      3.387255      2.036688
  C       3.563073      2.251325      1.257229
  C       2.715418      1.022417      1.514699
  N       1.267404      1.336070      1.295369
  C       0.799575      2.519838      2.088606
  H       1.409692      4.631614      2.312076
  H       3.682529      4.196594      1.974157
  H       4.589945      2.026009      1.538805
  H       3.545264      2.482638      0.184561
  H       2.971306      0.253005      0.785659
  H       2.823800      0.660264      2.536109
  H       1.115597      1.436090      0.264798
  H      -0.204254      2.772273      1.753251
  H       0.729918      2.161825      3.125822
  H       0.516278     -1.597558      2.793819
  H       0.708767      0.515999      1.584621
  O       0.045429     -1.148954      2.078167
40
Coordinates from ORCA-job /home/rudenko/2025/kie/for_orca/m-o2nc6h4chno2ch3_piperazine/orca/ts_opt/ts_opt E -1063.549896542378
  C      -3.278886      0.301718     -1.038211
  C      -1.902509      0.124007     -1.046051
  C      -1.305565     -1.093767     -1.446504
  C      -2.184871     -2.115968     -1.849720
  C      -3.555412     -1.913689     -1.831132
  C      -4.136902     -0.713474     -1.433555
  H      -3.690388      1.252978     -0.713305
  H      -1.265531      0.940208     -0.742446
  H      -1.813682     -3.074112     -2.177872
  H      -5.209323     -0.594235     -1.420491
  N      -4.428176     -3.010998     -2.250865
  O      -5.629097     -2.789932     -2.361758
  O      -3.925431     -4.108308     -2.478316
  C       0.121285     -1.389593     -1.410391
  C       0.610240     -2.803910     -1.518617
  H       1.522305     -2.931105     -0.943227
  H       0.835637     -3.064931     -2.559844
  H      -0.131404     -3.513730     -1.160142
  N       1.059087     -0.446121     -1.314221
  O       2.296742     -0.755844     -1.173019
  O       0.762239      0.818326     -1.360315
  H       0.080157     -1.798012      1.331317
  C       1.707802      3.676017      1.905256
  N       3.065346      3.412887      2.031933
  C       3.575821      2.266940      1.279905
  C       2.732756      1.033871      1.538797
  N       1.285726      1.328491      1.278617
  C       0.786634      2.515863      2.043556
  H       1.364328      4.643906      2.250927
  H       3.656834      4.231574      1.971108
  H       4.602187      2.058423      1.587007
  H       3.576010      2.478923      0.202209
  H       3.008677      0.252289      0.832545
  H       2.820081      0.693438      2.569636
  H       1.157985      1.412960      0.242652
  H      -0.213065      2.751738      1.680470
  H       0.696453      2.171649      3.083476
  H       0.543082     -1.594962      2.779002
  H       0.728660      0.508425      1.564304
  O       0.074169     -1.161942      2.057284
40
Coordinates from ORCA-job /home/rudenko/2025/kie/for_orca/m-o2nc6h4chno2ch3_piperazine/orca/ts_opt/ts_opt E -1063.550026220808
  C      -3.288411      0.287320     -0.988884
  C      -1.911199      0.113037     -1.001918
  C      -1.315939     -1.096551     -1.439704
  C      -2.195726     -2.104767     -1.878426
  C      -3.565841     -1.900976     -1.855264
  C      -4.147743     -0.717444     -1.417194
  H      -3.702034      1.218707     -0.629317
  H      -1.278325      0.912278     -0.667187
  H      -1.823092     -3.047659     -2.240859
  H      -5.219030     -0.597109     -1.401457
  N      -4.439404     -2.986339     -2.310128
  O      -5.642014     -2.763305     -2.405448
  O      -3.934236     -4.066947     -2.585657
  C       0.114239     -1.389267     -1.405082
  C       0.615255     -2.797960     -1.508208
  H       1.493813     -2.932367     -0.883067
  H       0.907284     -3.039443     -2.533901
  H      -0.144812     -3.514175     -1.203956
  N       1.046585     -0.441183     -1.301538
  O       2.284258     -0.749896     -1.149543
  O       0.746566      0.830723     -1.343930
  H       0.117191     -1.834374      1.396676
  C       1.699943      3.676890      1.853102
  N       3.055111      3.419795      2.000626
  C       3.576840      2.263066      1.276577
  C       2.738978      1.033175      1.555838
  N       1.294954      1.314494      1.273852
  C       0.781382      2.518189      2.005075
  H       1.352352      4.646929      2.178279
  H       3.643840      4.235590      1.929402
  H       4.600282      2.065677      1.595005
  H       3.583839      2.451845      0.194911
  H       3.027633      0.238274      0.868722
  H       2.816954      0.716802      2.594594
  H       1.176540      1.374384      0.231759
  H      -0.213775      2.743287      1.623791
  H       0.679000      2.198718      3.052219
  H       0.604220     -1.593865      2.834948
  H       0.744694      0.495475      1.577193
  O       0.119828     -1.181032      2.108096
40
Coordinates from ORCA-job /home/rudenko/2025/kie/for_orca/m-o2nc6h4chno2ch3_piperazine/orca/ts_opt/ts_opt E -1063.550194899431
  C      -3.275672      0.271860     -0.924545
  C      -1.900772      0.084518     -0.947692
  C      -1.315875     -1.110391     -1.426544
  C      -2.202494     -2.098638     -1.893613
  C      -3.572345     -1.886667     -1.858193
  C      -4.142097     -0.707852     -1.383584
  H      -3.679632      1.204807     -0.538589
  H      -1.256179      0.874387     -0.592005
  H      -1.837143     -3.033329     -2.283661
  H      -5.213654     -0.581378     -1.356776
  N      -4.457813     -2.942705     -2.351135
  O      -5.660531     -2.708480     -2.424240
  O      -3.964246     -4.016628     -2.679058
  C       0.110832     -1.411673     -1.401049
  C       0.601459     -2.824811     -1.514439
  H       1.446732     -2.985804     -0.852134
  H       0.940018     -3.041839     -2.532118
  H      -0.176361     -3.541827     -1.269607
  N       1.050401     -0.471421     -1.299265
  O       2.286280     -0.787820     -1.152599
  O       0.758873      0.799241     -1.341982
  H       0.155233     -1.866803      1.397805
  C       1.670969      3.683468      1.808264
  N       3.027648      3.452749      1.985324
  C       3.581213      2.288764      1.296413
  C       2.754904      1.052607      1.589055
  N       1.314470      1.306601      1.266486
  C       0.766502      2.512638      1.963786
  H       1.300862      4.654883      2.107567
  H       3.605708      4.278884      1.908510
  H       4.602588      2.115783      1.636050
  H       3.602641      2.453513      0.211168
  H       3.068836      0.241091      0.933543
  H       2.814035      0.764959      2.638132
  H       1.221828      1.350567      0.221574
  H      -0.223243      2.714677      1.557462
  H       0.646102      2.211650      3.013955
  H       0.631538     -1.588156      2.830056
  H       0.767357      0.484529      1.565405
  O       0.151029     -1.195953      2.092273
40
Coordinates from ORCA-job /home/rudenko/2025/kie/for_orca/m-o2nc6h4chno2ch3_piperazine/orca/ts_opt/ts_opt E -1063.550412805673
  C      -3.287543      0.250998     -0.863806
  C      -1.912040      0.066722     -0.888380
  C      -1.325767     -1.109989     -1.413010
  C      -2.208790     -2.076815     -1.926196
  C      -3.578533     -1.866629     -1.888691
  C      -4.152611     -0.713713     -1.366106
  H      -3.695933      1.158059     -0.437820
  H      -1.272869      0.835975     -0.494394
  H      -1.840032     -2.995914     -2.354881
  H      -5.222917     -0.586731     -1.340427
  N      -4.458917     -2.905041     -2.429416
  O      -5.662766     -2.675792     -2.484166
  O      -3.958313     -3.953893     -2.816615
  C       0.103680     -1.406389     -1.385954
  C       0.609166     -2.812658     -1.490588
  H       1.411619     -2.983571     -0.776082
  H       1.021349     -3.007745     -2.484704
  H      -0.181184     -3.535937     -1.309600
  N       1.034231     -0.461793     -1.277908
  O       2.269988     -0.773169     -1.119896
  O       0.736157      0.809338     -1.325369
  H       0.182304     -1.901608      1.477368
  C       1.660719      3.678407      1.746709
  N       3.018385      3.458443      1.934821
  C       3.581270      2.280597      1.276169
  C       2.761506      1.048913      1.598448
  N       1.321030      1.285847      1.266454
  C       0.762973      2.507055      1.929970
  H       1.284336      4.655411      2.021550
  H       3.592112      4.283288      1.840287
  H       4.603204      2.122434      1.622455
  H       3.604147      2.415939      0.186685
  H       3.083445      0.223060      0.965641
  H       2.819198      0.789524      2.654231
  H       1.223745      1.303647      0.217310
  H      -0.227191      2.692727      1.513368
  H       0.640181      2.235043      2.988203
  H       0.687274     -1.587299      2.893167
  H       0.781972      0.467028      1.586540
  O       0.191417     -1.213767      2.154634
40
Coordinates from ORCA-job /home/rudenko/2025/kie/for_orca/m-o2nc6h4chno2ch3_piperazine/orca/ts_opt/ts_opt E -1063.550616816397
  C      -3.267379      0.234210     -0.795947
  C      -1.894334      0.036385     -0.833668
  C      -1.322970     -1.126008     -1.401377
  C      -2.216328     -2.068566     -1.942753
  C      -3.584336     -1.845614     -1.892529
  C      -4.142778     -0.701526     -1.328747
  H      -3.664807      1.134100     -0.338487
  H      -1.243708      0.787781     -0.415705
  H      -1.856180     -2.971051     -2.404056
  H      -5.212755     -0.566552     -1.291414
  N      -4.479671     -2.848833     -2.471949
  O      -5.683803     -2.609193     -2.497940
  O      -3.992478     -3.879871     -2.918423
  C       0.104085     -1.433545     -1.389036
  C       0.598201     -2.843862     -1.504414
  H       1.363985     -3.042852     -0.757356
  H       1.055677     -3.018594     -2.481336
  H      -0.205588     -3.562229     -1.381953
  N       1.042681     -0.496776     -1.281998
  O       2.276992     -0.818574     -1.132308
  O       0.754160      0.778417     -1.320612
  H       0.225700     -1.939494      1.496854
  C       1.624902      3.681353      1.690835
  N       2.981661      3.491913      1.908958
  C       3.579003      2.307441      1.295405
  C       2.772962      1.071670      1.637264
  N       1.338704      1.275420      1.264952
  C       0.743793      2.499212      1.886642
  H       1.227139      4.656794      1.932682
  H       3.543117      4.325124      1.803914
  H       4.596023      2.178728      1.665749
  H       3.620957      2.411900      0.203267
  H       3.124000      0.228388      1.043181
  H       2.810203      0.846939      2.702543
  H       1.266215      1.274847      0.214233
  H      -0.239380      2.656168      1.445905
  H       0.603157      2.251950      2.948163
  H       0.720574     -1.577284      2.905051
  H       0.805317      0.451877      1.584022
  O       0.227287     -1.230192      2.152389
40
Coordinates from ORCA-job /home/rudenko/2025/kie/for_orca/m-o2nc6h4chno2ch3_piperazine/orca/ts_opt/ts_opt E -1063.550793182498
  C      -3.280189      0.204991     -0.729231
  C      -1.906560      0.011165     -0.765870
  C      -1.329920     -1.120685     -1.383897
  C      -2.214718     -2.036930     -1.975150
  C      -3.583601     -1.820199     -1.924684
  C      -4.149536     -0.707844     -1.312017
  H      -3.682840      1.082657     -0.233144
  H      -1.260647      0.743282     -0.308233
  H      -1.848386     -2.921956     -2.475211
  H      -5.218838     -0.573710     -1.278830
  N      -4.468506     -2.798541     -2.559118
  O      -5.674044     -2.574075     -2.565008
  O      -3.969654     -3.794168     -3.069144
  C       0.098002     -1.425483     -1.366558
  C       0.600007     -2.833521     -1.467999
  H       1.308003     -3.046948     -0.668108
  H       1.133171     -2.992039     -2.409000
  H      -0.211549     -3.552399     -1.418161
  N       1.029173     -0.485214     -1.253775
  O       2.263252     -0.800586     -1.089621
  O       0.735112      0.788817     -1.304225
  H       0.246319     -1.972893      1.573908
  C       1.611621      3.670204      1.631661
  N       2.971950      3.495733      1.846572
  C       3.574848      2.301024      1.258331
  C       2.779782      1.068174      1.637542
  N       1.342126      1.251534      1.267900
  C       0.740289      2.486505      1.861573
  H       1.207207      4.649787      1.852058
  H       3.526740      4.330037      1.718046
  H       4.595418      2.189704      1.624658
  H       3.609363      2.377908      0.163856
  H       3.135669      0.211577      1.066713
  H       2.824696      0.873315      2.708249
  H       1.255745      1.227539      0.214726
  H      -0.246511      2.624577      1.419639
  H       0.604804      2.267201      2.930059
  H       0.771038     -1.580990      2.961308
  H       0.817944      0.431424      1.608019
  O       0.263219     -1.248974      2.212165
40
Coordinates from ORCA-job /home/rudenko/2025/kie/for_orca/m-o2nc6h4chno2ch3_piperazine/orca/ts_opt/ts_opt E -1063.550911163085
  C      -3.255877      0.183337     -0.662185
  C      -1.884038     -0.020832     -0.714265
  C      -1.323952     -1.139080     -1.374197
  C      -2.220144     -2.027234     -1.993447
  C      -3.586818     -1.796142     -1.929959
  C      -4.136711     -0.699565     -1.273422
  H      -3.649340      1.040087     -0.132318
  H      -1.230673      0.684830     -0.231444
  H      -1.862207     -2.888911     -2.527665
  H      -5.205719     -0.558866     -1.228379
  N      -4.489439     -2.732835     -2.602357
  O      -5.696083     -2.502215     -2.572165
  O      -4.006126     -3.696546     -3.179768
  C       0.103705     -1.451991     -1.375483
  C       0.600598     -2.859965     -1.485517
  H       1.271745     -3.098095     -0.659322
  H       1.176510     -2.999984     -2.402611
  H      -0.217568     -3.572899     -1.487928
  N       1.038257     -0.516642     -1.264790
  O       2.271892     -0.837901     -1.109645
  O       0.747628      0.760729     -1.304147
  H       0.276278     -2.005638      1.615853
  C       1.575897      3.668034      1.567764
  N       2.934845      3.523666      1.807188
  C       3.568457      2.319535      1.271880
  C       2.785045      1.089345      1.677251
  N       1.354747      1.239980      1.275208
  C       0.721731      2.477320      1.824130
  H       1.152965      4.646697      1.749029
  H       3.477886      4.361906      1.660863
  H       4.583443      2.238601      1.661681
  H       3.622166      2.358148      0.175533
  H       3.165981      0.217257      1.147556
  H       2.811363      0.932380      2.754725
  H       1.289252      1.197155      0.221839
  H      -0.259892      2.584157      1.364241
  H       0.574521      2.287431      2.896552
  H       0.794184     -1.562968      2.992489
  H       0.836157      0.416923      1.618779
  O       0.289333     -1.259208      2.228456
40
Coordinates from ORCA-job /home/rudenko/2025/kie/for_orca/m-o2nc6h4chno2ch3_piperazine/orca/ts_opt/ts_opt E -1063.550936684038
  C      -3.258628      0.143002     -0.591857
  C      -1.886616     -0.057501     -0.650040
  C      -1.323012     -1.136188     -1.361675
  C      -2.213005     -1.995011     -2.022885
  C      -3.581069     -1.772540     -1.952149
  C      -4.135658     -0.710937     -1.247464
  H      -3.652928      0.982700     -0.024766
  H      -1.232892      0.629766     -0.133704
  H      -1.850668     -2.836610     -2.595939
  H      -5.203191     -0.567679     -1.203364
  N      -4.474435     -2.680668     -2.672782
  O      -5.681685     -2.471153     -2.620862
  O      -3.981324     -3.605318     -3.306564
  C       0.105098     -1.446408     -1.365408
  C       0.604889     -2.854100     -1.475669
  H       1.217321     -3.115952     -0.611056
  H       1.242759     -2.974843     -2.354407
  H      -0.213003     -3.563053     -1.548881
  N       1.034314     -0.507612     -1.238592
  O       2.268162     -0.824480     -1.076757
  O       0.738573      0.770607     -1.272135
  H       0.262548     -2.028588      1.688307
  C       1.564675      3.658718      1.507298
  N       2.926697      3.526829      1.739420
  C       3.560600      2.309819      1.237483
  C       2.783513      1.088094      1.686793
  N       1.351088      1.222415      1.287301
  C       0.716590      2.473054      1.806146
  H       1.140113      4.641000      1.662069
  H       3.465536      4.362884      1.562141
  H       4.577946      2.244848      1.621647
  H       3.607084      2.315413      0.140882
  H       3.166115      0.202148      1.182382
  H       2.817303      0.964212      2.768664
  H       1.275078      1.156871      0.232584
  H      -0.268670      2.562577      1.350220
  H       0.578132      2.315712      2.884815
  H       0.817282     -1.558714      3.039389
  H       0.837231      0.403927      1.648045
  O       0.298140     -1.267241      2.281368
40
Coordinates from ORCA-job /home/rudenko/2025/kie/for_orca/m-o2nc6h4chno2ch3_piperazine/orca/ts_opt/ts_opt E -1063.550931742614
  C      -3.226951      0.139760     -0.565781
  C      -1.856903     -0.068773     -0.641074
  C      -1.312152     -1.149530     -1.368380
  C      -2.218013     -1.994122     -2.029828
  C      -3.583011     -1.757598     -1.943948
  C      -4.118735     -0.698420     -1.221985
  H      -3.610099      0.964213      0.014530
  H      -1.195960      0.599145     -0.121651
  H      -1.868077     -2.823298     -2.617633
  H      -5.186034     -0.548663     -1.165292
  N      -4.496368     -2.645850     -2.667161
  O      -5.702650     -2.426213     -2.590887
  O      -4.021900     -3.561590     -3.323988
  C       0.115587     -1.467625     -1.393210
  C       0.608494     -2.873803     -1.521705
  H       1.216547     -3.152896     -0.658174
  H       1.249726     -2.984396     -2.397632
  H      -0.215450     -3.575878     -1.605305
  N       1.049117     -0.535567     -1.261086
  O       2.281981     -0.860715     -1.115859
  O       0.757459      0.743567     -1.271089
  H       0.267421     -2.046242      1.717819
  C       1.536179      3.656038      1.461722
  N       2.896058      3.548618      1.718018
  C       3.554484      2.323891      1.267304
  C       2.782185      1.106513      1.731968
  N       1.357160      1.215416      1.305582
  C       0.701370      2.468065      1.787487
  H       1.096721      4.638385      1.576316
  H       3.426481      4.385101      1.523399
  H       4.564075      2.282979      1.676605
  H       3.624487      2.296553      0.171530
  H       3.184531      0.215383      1.253885
  H       2.797792      1.006647      2.816229
  H       1.302277      1.134958      0.250585
  H      -0.280544      2.532608      1.320184
  H       0.557071      2.335917      2.869038
  H       0.818439     -1.545228      3.061331
  H       0.845614      0.394337      1.664577
  O       0.301587     -1.271686      2.293559
40
Coordinates from ORCA-job /home/rudenko/2025/kie/for_orca/m-o2nc6h4chno2ch3_piperazine/orca/ts_opt/ts_opt E -1063.550808482994
  C      -3.194651      0.129271     -0.517046
  C      -1.828236     -0.091940     -0.609509
  C      -1.295367     -1.148239     -1.370540
  C      -2.210828     -1.968532     -2.044436
  C      -3.573625     -1.725604     -1.942326
  C      -4.097546     -0.683611     -1.189150
  H      -3.561825      0.958335      0.088625
  H      -1.152529      0.564153     -0.078777
  H      -1.872754     -2.793247     -2.658570
  H      -5.161136     -0.520140     -1.126446
  N      -4.491672     -2.593888     -2.682905
  O      -5.693901     -2.380799     -2.588096
  O      -4.022921     -3.496523     -3.366778
  C       0.128193     -1.476817     -1.409973
  C       0.601405     -2.890714     -1.560626
  H       1.185670     -3.199055     -0.690543
  H       1.255230     -2.996102     -2.431047
  H      -0.232921     -3.576651     -1.670400
  N       1.073191     -0.554975     -1.254054
  O       2.305062     -0.895710     -1.122676
  O       0.796219      0.729434     -1.233719
  H       0.252752     -2.079119      1.762158
  C       1.493459      3.641348      1.397392
  N       2.855213      3.569859      1.655383
  C       3.536368      2.338029      1.263812
  C       2.780050      1.123466      1.773615
  N       1.356467      1.194716      1.332530
  C       0.680119      2.452968      1.776300
  H       1.039381      4.618568      1.468039
  H       3.371379      4.407250      1.422039
  H       4.541845      2.331443      1.682738
  H       3.617787      2.266535      0.171356
  H       3.202523      0.223229      1.328317
  H       2.793565      1.061329      2.861624
  H       1.316782      1.091215      0.279081
  H      -0.306511      2.484720      1.319383
  H       0.550972      2.356540      2.862584
  H       0.816518     -1.551075      3.088707
  H       0.850083      0.371751      1.694091
  O       0.296189     -1.291417      2.319842
40
Coordinates from ORCA-job /home/rudenko/2025/kie/for_orca/m-o2nc6h4chno2ch3_piperazine/orca/ts_opt/ts_opt E -1063.550939121704
  C      -3.202866      0.124171     -0.512997
  C      -1.835597     -0.088168     -0.602259
  C      -1.297013     -1.141844     -1.369074
  C      -2.207278     -1.961952     -2.052138
  C      -3.570961     -1.724875     -1.952901
  C      -4.099521     -0.688530     -1.193166
  H      -3.578928      0.930030      0.097996
  H      -1.169902      0.559896     -0.064201
  H      -1.863264     -2.772800     -2.670177
  H      -5.166535     -0.537771     -1.130066
  N      -4.488993     -2.589293     -2.700810
  O      -5.694000     -2.383309     -2.594746
  O      -4.018162     -3.473660     -3.401945
  C       0.128612     -1.466950     -1.404053
  C       0.610184     -2.877283     -1.535830
  H       1.176585     -3.176910     -0.651386
  H       1.282767     -2.987161     -2.387347
  H      -0.220379     -3.566150     -1.658255
  N       1.067374     -0.543105     -1.256723
  O       2.299954     -0.877909     -1.120470
  O       0.784656      0.738944     -1.248820
  H       0.239126     -2.078340      1.776125
  C       1.495861      3.634819      1.393660
  N       2.859909      3.562027      1.641162
  C       3.536575      2.328288      1.247454
  C       2.781945      1.117510      1.762889
  N       1.355093      1.190073      1.334740
  C       0.685587      2.449852      1.783309
  H       1.041057      4.614852      1.462592
  H       3.374667      4.397236      1.400305
  H       4.544396      2.320169      1.661347
  H       3.613039      2.255262      0.154946
  H       3.201129      0.217046      1.317040
  H       2.803326      1.057849      2.850193
  H       1.301291      1.084278      0.279445
  H      -0.307707      2.481562      1.337315
  H       0.568645      2.356151      2.871854
  H       0.823836     -1.559650      3.097488
  H       0.850650      0.368975      1.702728
  O       0.294845     -1.293331      2.334775
40
Coordinates from ORCA-job /home/rudenko/2025/kie/for_orca/m-o2nc6h4chno2ch3_piperazine/orca/ts_opt/ts_opt E -1063.550637648764
  C      -3.191373      0.105484     -0.464372
  C      -1.822357     -0.104429     -0.566624
  C      -1.284835     -1.137670     -1.360221
  C      -2.193225     -1.937935     -2.065559
  C      -3.558687     -1.702064     -1.958409
  C      -4.088460     -0.687229     -1.167062
  H      -3.564079      0.903865      0.178791
  H      -1.149051      0.535627     -0.012768
  H      -1.848491     -2.736138     -2.708744
  H      -5.156516     -0.543878     -1.096847
  N      -4.476000     -2.546099     -2.727418
  O      -5.680826     -2.368632     -2.590709
  O      -4.004150     -3.389192     -3.479411
  C       0.142355     -1.456862     -1.396940
  C       0.621981     -2.872381     -1.486808
  H       1.115793     -3.172586     -0.558962
  H       1.356771     -2.990222     -2.286939
  H      -0.196958     -3.558846     -1.671664
  N       1.080341     -0.529015     -1.271988
  O       2.314099     -0.856113     -1.118114
  O       0.798837      0.759578     -1.292698
  H       0.201603     -2.093324      1.776332
  C       1.476139      3.618198      1.368219
  N       2.841071      3.555126      1.602123
  C       3.523760      2.320531      1.217891
  C       2.773610      1.112256      1.741572
  N       1.344299      1.177702      1.325141
  C       0.675094      2.435493      1.776164
  H       1.018048      4.593816      1.429612
  H       3.348730      4.390089      1.345845
  H       4.530268      2.320968      1.637758
  H       3.609667      2.238336      0.126062
  H       3.196374      0.205010      1.312556
  H       2.798917      1.066102      2.829590
  H       1.273379      1.069624      0.274329
  H      -0.323829      2.462387      1.349118
  H       0.573315      2.346331      2.866133
  H       0.804995     -1.584447      3.089475
  H       0.844245      0.357376      1.701732
  O       0.275144     -1.306838      2.333812
40
Coordinates from ORCA-job /home/rudenko/2025/kie/for_orca/m-o2nc6h4chno2ch3_piperazine/orca/ts_opt/ts_opt E -1063.550879169366
  C      -3.217811      0.115423     -0.511289
  C      -1.847573     -0.092206     -0.599521
  C      -1.302862     -1.144353     -1.363699
  C      -2.206867     -1.966867     -2.051325
  C      -3.573335     -1.733210     -1.956395
  C      -4.109490     -0.698112     -1.196174
  H      -3.596836      0.930785      0.103999
  H      -1.179875      0.564499     -0.059774
  H      -1.857020     -2.780500     -2.669929
  H      -5.178665     -0.555459     -1.133155
  N      -4.483858     -2.600848     -2.708160
  O      -5.689482     -2.406934     -2.603919
  O      -4.005685     -3.478784     -3.415030
  C       0.124598     -1.458810     -1.391608
  C       0.612932     -2.870005     -1.497071
  H       1.157992     -3.158763     -0.595619
  H       1.307598     -2.984533     -2.333050
  H      -0.207782     -3.565478     -1.637356
  N       1.059253     -0.526346     -1.263337
  O       2.293477     -0.850458     -1.108620
  O       0.773287      0.759066     -1.285571
  H       0.234288     -2.067733      1.744073
  C       1.513580      3.640852      1.417478
  N       2.876640      3.551711      1.658140
  C       3.542609      2.319678      1.237769
  C       2.780093      1.108228      1.734620
  N       1.351566      1.199332      1.316499
  C       0.693438      2.456293      1.786009
  H       1.068993      4.620930      1.509839
  H       3.397161      4.387866      1.431834
  H       4.552308      2.296724      1.649822
  H       3.616788      2.264897      0.142916
  H       3.189655      0.207086      1.279831
  H       2.804459      1.034881      2.821285
  H       1.286177      1.105892      0.263813
  H      -0.298031      2.505344      1.343193
  H       0.574215      2.343714      2.871905
  H       0.811337     -1.565369      3.072635
  H       0.844180      0.379360      1.683164
  O       0.288548     -1.287790      2.311778
40
Coordinates from ORCA-job /home/rudenko/2025/kie/for_orca/m-o2nc6h4chno2ch3_piperazine/orca/ts_opt/ts_opt E -1063.551048160963
  C      -3.221297      0.139191     -0.552332
  C      -1.853053     -0.072612     -0.629578
  C      -1.307241     -1.142536     -1.367438
  C      -2.212017     -1.980090     -2.034594
  C      -3.576765     -1.745860     -1.946145
  C      -4.113158     -0.694245     -1.215400
  H      -3.602128      0.961799      0.036930
  H      -1.190099      0.593444     -0.106005
  H      -1.863446     -2.807585     -2.631213
  H      -5.178186     -0.541213     -1.162002
  N      -4.487438     -2.631359     -2.675044
  O      -5.693079     -2.418371     -2.592210
  O      -4.010000     -3.541466     -3.339324
  C       0.119745     -1.461593     -1.392836
  C       0.608706     -2.871216     -1.517343
  H       1.198354     -3.155477     -0.643806
  H       1.262179     -2.985442     -2.383800
  H      -0.216256     -3.569618     -1.614366
  N       1.054708     -0.531442     -1.254705
  O       2.287891     -0.858770     -1.109642
  O       0.766922      0.749247     -1.263358
  H       0.252024     -2.060766      1.724874
  C       1.522789      3.646999      1.443687
  N       2.885191      3.550851      1.691052
  C       3.547402      2.324570      1.253517
  C       2.782105      1.107000      1.734510
  N       1.354082      1.205142      1.314145
  C       0.696681      2.460104      1.791993
  H       1.079232      4.628557      1.546685
  H       3.409820      4.387357      1.480441
  H       4.556638      2.292750      1.661412
  H       3.618406      2.285900      0.159158
  H       3.188483      0.214454      1.262415
  H       2.805108      1.016608      2.819550
  H       1.294049      1.118054      0.259857
  H      -0.292313      2.515296      1.338503
  H       0.568112      2.337861      2.876475
  H       0.817593     -1.562815      3.062236
  H       0.844755      0.383028      1.674298
  O       0.295503     -1.285736      2.299403
40
Coordinates from ORCA-job /home/rudenko/2025/kie/for_orca/m-o2nc6h4chno2ch3_piperazine/orca/ts_opt/ts_opt E -1063.551035897001
  C      -3.246024      0.154926     -0.608583
  C      -1.874506     -0.049505     -0.673175
  C      -1.321039     -1.143346     -1.372993
  C      -2.220977     -2.008514     -2.016535
  C      -3.587450     -1.775513     -1.943030
  C      -4.131443     -0.700197     -1.249385
  H      -3.632602      1.000764     -0.049341
  H      -1.215565      0.636779     -0.168252
  H      -1.866667     -2.853622     -2.583772
  H      -5.201597     -0.555333     -1.201256
  N      -4.490267     -2.691855     -2.646863
  O      -5.695343     -2.471285     -2.598496
  O      -4.006503     -3.634697     -3.259591
  C       0.105756     -1.456744     -1.384180
  C       0.599979     -2.864159     -1.504522
  H       1.234842     -3.125623     -0.654966
  H       1.212225     -2.989820     -2.401483
  H      -0.223300     -3.570899     -1.550446
  N       1.038825     -0.521257     -1.251079
  O       2.272703     -0.844851     -1.099953
  O       0.748887      0.759057     -1.271063
  H       0.269528     -2.032358      1.665382
  C       1.557245      3.664431      1.505727
  N       2.918329      3.541507      1.748248
  C       3.563109      2.321244      1.266131
  C       2.786585      1.098116      1.712624
  N       1.357548      1.226343      1.300762
  C       0.715774      2.475602      1.813857
  H       1.127995      4.646860      1.647575
  H       3.453558      4.379842      1.567141
  H       4.576548      2.264425      1.665757
  H       3.623615      2.316880      0.169165
  H       3.178768      0.216209      1.207616
  H       2.813166      0.972705      2.794493
  H       1.295363      1.162929      0.245767
  H      -0.269625      2.557985      1.359140
  H       0.581531      2.320858      2.893092
  H       0.812216     -1.560237      3.021240
  H       0.841245      0.403236      1.646871
  O       0.297568     -1.270881      2.258376
