!  NUMFREQ B3LYP def2-TZVP CPCM D3 
%pal nprocs 102 end
%cpcm epsilon 78.4 end 
*xyz 0 1 
C   1.97278847132873 3.14175462655493 1.96080427182245
C   2.21995752294298 1.84585538849494 1.52431474706321
C   1.53364154510296 0.76619619947279 2.08183417265771
C   0.59152174817605 1.00144271553625 3.08269943581718
C   0.3437075415987 2.2979341594359 3.51945019252842
C   1.03148384794749 3.37063667923028 2.95941429707152
H   2.52033159284424 3.9688459607183 1.52780047515187
H   2.95701288450119 1.66643774426048 0.75119154818221
H   0.05280706166881 0.17774940761637 3.52968026667994
H   0.84179817988249 4.37842445296515 3.30645052815572
C   1.83163244431157 -0.62583120836447 1.57033237967275
C   1.58949684062273 -1.7728527140015 2.53348853088561
H   1.85990645019438 -2.71814573760412 2.06242867823386
H   0.551454217962 -1.82345174289278 2.85404054170386
H   2.22211759295257 -1.63029112441361 3.40854012226734
N   0.96596490697778 -0.84513295743685 0.3170279757607
O   1.51888552816682 -0.78420640040723 -0.76932304021566
O   -0.22610690247135 -1.04918839073036 0.46882049112215
N   3.7831801342307 1.95511810485874 4.87384284124396
C   3.98456555465267 0.50804911298395 4.77694180087353
C   5.29912553833234 0.11644468410638 5.4442659393656
C   6.46823036335582 0.88496055386296 4.82255162086109
C   6.19209469179225 2.39059658939608 4.82270261128118
C   4.84019974515922 2.69430453693285 4.18340977291371
H   4.61753013165332 3.76157032511883 4.24382783759933
H   4.88187819675298 2.43227518422387 3.11227697619358
H   6.97965804426835 2.92470335176229 4.28476855532637
H   6.18860252550386 2.76301726290635 5.85216194025457
H   5.45318698379508 -0.96140805189043 5.34890860788359
H   5.23774810004979 0.34555991775822 6.51317989072351
H   4.01339734926404 0.17919348426777 3.72619416282635
H   2.84614974297623 -0.66087570731623 1.18174283694532
H   2.8829246897749 2.19733902541888 4.47784044266294
H   3.14165225267681 0.00525194068173 5.25377990297623
H   7.39701785463324 0.66612865136767 5.35532457577052
H   6.60944459324662 0.54880054302496 3.78951520298085
H   -0.38372170683162 2.46949522906763 4.30260836994686
H   5.17522905069714 0.55997286915537 1.54915569577409
H   5.62868498884502 -0.85733572327867 1.87512129194391
O   5.28664948046037 -0.31455919284387 1.15349264909138
*
