29
Coordinates from ORCA-job /home/rudenko/2025/kie/for_orca/m,m-o2n2c6h4chno2ch3_oh/orca/ts_opt/ts_opt E -1076.752383330375
  C      -2.343042      0.612570     -0.627378
  C      -1.063711      0.796633     -0.128252
  C      -0.072417     -0.153492     -0.386787
  C      -0.413558     -1.280696     -1.129892
  C      -1.711160     -1.431107     -1.603236
  C      -2.703915     -0.498032     -1.372342
  H      -0.841452      1.669905      0.463088
  H       0.315631     -2.043674     -1.350940
  H      -3.704835     -0.628672     -1.748028
  N      -2.045192     -2.627938     -2.389392
  O      -3.184183     -2.732135     -2.821494
  O      -1.166979     -3.459246     -2.570673
  C       1.305855      0.025554      0.173998
  H       1.168183      0.460230      1.324976
  C       2.157814     -1.222494      0.288956
  H       3.039205     -1.022862      0.894041
  H       2.486848     -1.606243     -0.679740
  H       1.574601     -1.996412      0.788714
  N       2.022460      1.126255     -0.476948
  O       3.254651      1.109338     -0.468264
  O       1.384210      2.079007     -0.934218
  O       3.517021      1.800384      3.182418
  H       3.771566      1.403147      4.022289
  N      -3.367670      1.631101     -0.351584
  O      -4.509589      1.413805     -0.730543
  O      -3.025534      2.644396      0.239686
  H       0.465098      1.597547      2.704673
  H       2.584368      1.456919      3.000938
  O       1.105724      0.876210      2.685932
29
Coordinates from ORCA-job /home/rudenko/2025/kie/for_orca/m,m-o2n2c6h4chno2ch3_oh/orca/ts_opt/ts_opt E -1076.752354215313
  C      -2.341137      0.612176     -0.623006
  C      -1.060595      0.792880     -0.125710
  C      -0.071166     -0.157904     -0.388854
  C      -0.415514     -1.282616     -1.134163
  C      -1.714180     -1.429657     -1.605681
  C      -2.705031     -0.495620     -1.370631
  H      -0.835808      1.664389      0.467201
  H       0.312155     -2.045949     -1.358907
  H      -3.706832     -0.623660     -1.744895
  N      -2.051330     -2.623707     -2.394710
  O      -3.190851     -2.724616     -2.826184
  O      -1.175266     -3.456682     -2.577852
  C       1.308938      0.018175      0.168453
  H       1.175339      0.451324      1.320245
  C       2.159389     -1.231304      0.279042
  H       3.042689     -1.033901      0.882118
  H       2.485286     -1.614052     -0.691125
  H       1.576335     -2.005120      0.779184
  N       2.025010      1.119043     -0.482798
  O       3.257085      1.098767     -0.480979
  O       1.386916      2.075106     -0.933112
  O       3.532706      1.770071      3.179766
  H       3.706134      1.534821      4.097850
  N      -3.363683      1.631402     -0.342190
  O      -4.506154      1.418077     -0.721837
  O      -3.020133      2.639507      0.257306
  H       0.478742      1.593958      2.696877
  H       2.596877      1.437074      2.994339
  O       1.114081      0.868018      2.680252
29
Coordinates from ORCA-job /home/rudenko/2025/kie/for_orca/m,m-o2n2c6h4chno2ch3_oh/orca/ts_opt/ts_opt E -1076.751387466591
  C      -2.341214      0.606286     -0.606986
  C      -1.057741      0.787132     -0.117228
  C      -0.068812     -0.161689     -0.389011
  C      -0.416597     -1.285075     -1.134580
  C      -1.718237     -1.432889     -1.597621
  C      -2.708207     -0.499602     -1.355930
  H      -0.830358      1.657216      0.476527
  H       0.309944     -2.048201     -1.363536
  H      -3.712329     -0.628203     -1.723757
  N      -2.060000     -2.627931     -2.383230
  O      -3.195378     -2.718079     -2.827878
  O      -1.181750     -3.455130     -2.580273
  C       1.313798      0.013120      0.162617
  H       1.183565      0.440151      1.317571
  C       2.167050     -1.235514      0.260798
  H       3.052359     -1.040928      0.861931
  H       2.490089     -1.611086     -0.713160
  H       1.587095     -2.013760      0.757698
  N       2.024067      1.120731     -0.483069
  O       3.256181      1.101103     -0.491449
  O       1.381916      2.084854     -0.909510
  O       3.540091      1.718481      3.184755
  H       3.643923      1.646380      4.139596
  N      -3.363636      1.622605     -0.315115
  O      -4.487723      1.447405     -0.763010
  O      -3.006319      2.649023      0.244332
  H       0.488079      1.597683      2.678331
  H       2.598462      1.404282      2.996464
  O       1.111681      0.861634      2.674724
29
Coordinates from ORCA-job /home/rudenko/2025/kie/for_orca/m,m-o2n2c6h4chno2ch3_oh/orca/ts_opt/ts_opt E -1076.752359402538
  C      -2.340933      0.611714     -0.621738
  C      -1.060174      0.792703     -0.125049
  C      -0.070586     -0.157750     -0.388756
  C      -0.415140     -1.282711     -1.133529
  C      -1.714084     -1.430237     -1.604141
  C      -2.704929     -0.496195     -1.369131
  H      -0.835267      1.664386      0.467463
  H       0.312471     -2.046126     -1.358133
  H      -3.706946     -0.624622     -1.742695
  N      -2.051583     -2.625067     -2.391852
  O      -3.190348     -2.724898     -2.825588
  O      -1.175896     -3.458609     -2.573594
  C       1.309814      0.018549      0.167849
  H       1.176429      0.451324      1.319860
  C       2.160907     -1.230625      0.276976
  H       3.044323     -1.033374      0.879970
  H       2.486727     -1.612486     -0.693583
  H       1.578294     -2.005088      0.776656
  N       2.024721      1.120608     -0.482553
  O       3.256771      1.099747     -0.484116
  O       1.385864      2.078769     -0.927147
  O       3.532857      1.758595      3.179460
  H       3.700196      1.535800      4.101760
  N      -3.363628      1.630649     -0.340172
  O      -4.503942      1.422216     -0.729011
  O      -3.020459      2.637913      0.261175
  H       0.479463      1.601679      2.687196
  H       2.594833      1.431410      2.994452
  O       1.110246      0.871727      2.677972
29
Coordinates from ORCA-job /home/rudenko/2025/kie/for_orca/m,m-o2n2c6h4chno2ch3_oh/orca/ts_opt/ts_opt E -1076.752368080844
  C      -2.341205      0.611900     -0.622818
  C      -1.060543      0.793908     -0.126218
  C      -0.070521     -0.156401     -0.388891
  C      -0.414678     -1.282371     -1.132337
  C      -1.713541     -1.430901     -1.602877
  C      -2.704720     -0.496908     -1.369108
  H      -0.836042      1.666347      0.465283
  H       0.313208     -2.045792     -1.356014
  H      -3.706664     -0.626123     -1.742599
  N      -2.050600     -2.626860     -2.389086
  O      -3.188924     -2.726944     -2.823935
  O      -1.175295     -3.461445     -2.567726
  C       1.309877      0.020915      0.167468
  H       1.176102      0.454457      1.319407
  C       2.161669     -1.227737      0.276873
  H       3.045031     -1.029820      0.879749
  H       2.487669     -1.609789     -0.693551
  H       1.579499     -2.002342      0.776860
  N       2.024009      1.123255     -0.483249
  O       3.256025      1.100843     -0.489408
  O       1.384566      2.081471     -0.926862
  O       3.534444      1.746348      3.182504
  H       3.700958      1.518549      4.103723
  N      -3.364282      1.630661     -0.342276
  O      -4.504152      1.422087     -0.732273
  O      -3.023340      2.634620      0.265820
  H       0.481242      1.613315      2.678912
  H       2.594005      1.426436      2.996501
  O       1.106203      0.878322      2.676129
29
Coordinates from ORCA-job /home/rudenko/2025/kie/for_orca/m,m-o2n2c6h4chno2ch3_oh/orca/ts_opt/ts_opt E -1076.751809214562
  C      -2.350031      0.611020     -0.639625
  C      -1.069468      0.812323     -0.150116
  C      -0.072102     -0.134359     -0.398591
  C      -0.410207     -1.277915     -1.117698
  C      -1.709033     -1.445294     -1.581898
  C      -2.706478     -0.513988     -1.364844
  H      -0.850736      1.697591      0.423657
  H       0.322609     -2.040392     -1.327953
  H      -3.708324     -0.658198     -1.732939
  N      -2.039402     -2.659964     -2.342035
  O      -3.178256     -2.776672     -2.771467
  O      -1.175432     -3.517207     -2.456851
  C       1.308934      0.062087      0.149462
  H       1.172289      0.507872      1.298358
  C       2.174333     -1.176189      0.265215
  H       3.058045     -0.964274      0.863013
  H       2.501018     -1.563077     -0.703073
  H       1.602316     -1.952705      0.774016
  N       2.008478      1.167188     -0.511385
  O       3.240653      1.156126     -0.519954
  O       1.363119      2.153090     -0.878838
  O       3.571993      1.499060      3.226147
  H       3.675588      1.295466      4.162059
  N      -3.381092      1.625909     -0.372845
  O      -4.504173      1.434370     -0.816911
  O      -3.069091      2.599913      0.296834
  H       0.552785      1.779391      2.573213
  H       2.600924      1.310808      3.017151
  O       1.070742      0.968022      2.637898
29
Coordinates from ORCA-job /home/rudenko/2025/kie/for_orca/m,m-o2n2c6h4chno2ch3_oh/orca/ts_opt/ts_opt E -1076.751863158603
  C      -2.357788      0.607382     -0.640428
  C      -1.076997      0.825882     -0.159044
  C      -0.073530     -0.117648     -0.395307
  C      -0.407518     -1.277160     -1.091054
  C      -1.706949     -1.461369     -1.547316
  C      -2.709083     -0.531678     -1.345739
  H      -0.862863      1.722561      0.397881
  H       0.329229     -2.038901     -1.289923
  H      -3.711098     -0.688711     -1.707994
  N      -2.033201     -2.692731     -2.282433
  O      -3.145584     -2.785399     -2.781692
  O      -1.152368     -3.529443     -2.419395
  C       1.309270      0.097687      0.142461
  H       1.172717      0.561252      1.285647
  C       2.185481     -1.132013      0.266827
  H       3.070806     -0.906127      0.857169
  H       2.510240     -1.528032     -0.698387
  H       1.622987     -1.907481      0.787937
  N       1.994908      1.203945     -0.531588
  O       3.224045      1.169125     -0.620220
  O       1.338545      2.177990     -0.912598
  O       3.574943      1.275420      3.269181
  H       3.625702      1.127150      4.219720
  N      -3.394899      1.619265     -0.385506
  O      -4.499810      1.447206     -0.880473
  O      -3.110095      2.565305      0.334641
  H       0.640714      1.924817      2.484590
  H       2.592584      1.212384      3.038037
  O       1.049614      1.059321      2.605008
29
Coordinates from ORCA-job /home/rudenko/2025/kie/for_orca/m,m-o2n2c6h4chno2ch3_oh/orca/ts_opt/ts_opt E -1076.751295145365
  C      -2.362547      0.604288     -0.642202
  C      -1.082453      0.839401     -0.167133
  C      -0.070507     -0.096323     -0.399048
  C      -0.396985     -1.266566     -1.080795
  C      -1.695698     -1.465882     -1.532658
  C      -2.705487     -0.543172     -1.337533
  H      -0.875616      1.742890      0.381165
  H       0.345736     -2.023678     -1.274897
  H      -3.707132     -0.712418     -1.695525
  N      -2.013325     -2.706082     -2.256617
  O      -3.143927     -2.835125     -2.704438
  O      -1.158021     -3.578536     -2.303349
  C       1.313222      0.137075      0.128175
  H       1.175475      0.610576      1.270597
  C       2.204104     -1.081474      0.252061
  H       3.091669     -0.842817      0.833941
  H       2.525653     -1.479786     -0.713283
  H       1.654769     -1.860285      0.782308
  N       1.980888      1.248181     -0.554487
  O       3.202944      1.199115     -0.709358
  O       1.309983      2.212852     -0.933948
  O       3.544776      1.053581      3.321262
  H       3.555944      0.941494      4.278020
  N      -3.408526      1.607120     -0.390065
  O      -4.478719      1.478489     -0.967458
  O      -3.143952      2.537566      0.357416
  H       0.735413      2.036940      2.417073
  H       2.567753      1.109063      3.065169
  O       1.034565      1.133511      2.575609
29
Coordinates from ORCA-job /home/rudenko/2025/kie/for_orca/m,m-o2n2c6h4chno2ch3_oh/orca/ts_opt/ts_opt E -1076.750409204840
  C      -2.360418      0.595531     -0.637503
  C      -1.084838      0.806926     -0.143653
  C      -0.081111     -0.137270     -0.374174
  C      -0.410953     -1.293256     -1.078270
  C      -1.706044     -1.468141     -1.551228
  C      -2.706632     -0.535060     -1.356450
  H      -0.874169      1.699624      0.419996
  H       0.325968     -2.054732     -1.277477
  H      -3.703994     -0.684159     -1.732934
  N      -2.032290     -2.692396     -2.297325
  O      -3.129581     -2.743957     -2.838164
  O      -1.157421     -3.516645     -2.435614
  C       1.298305      0.092642      0.168371
  H       1.161745      0.576749      1.306121
  C       2.191536     -1.124851      0.303208
  H       3.073967     -0.884291      0.891874
  H       2.520332     -1.526769     -0.658215
  H       1.638496     -1.903201      0.831486
  N       1.967138      1.206110     -0.508292
  O       3.192276      1.161275     -0.644030
  O       1.297594      2.162778     -0.905136
  O       3.576587      1.238723      3.197644
  H       3.663566      1.115973      4.155464
  N      -3.397052      1.605913     -0.378797
  O      -4.476228      1.479786     -0.942671
  O      -3.118913      2.533094      0.376453
  H       0.692011      1.990892      2.482307
  H       2.597371      1.198007      3.010314
  O       1.042752      1.100706      2.616695
29
Coordinates from ORCA-job /home/rudenko/2025/kie/for_orca/m,m-o2n2c6h4chno2ch3_oh/orca/ts_opt/ts_opt E -1076.751433999508
  C      -2.355331      0.603983     -0.637794
  C      -1.078090      0.811594     -0.144073
  C      -0.076168     -0.131530     -0.385412
  C      -0.406961     -1.279268     -1.100947
  C      -1.702884     -1.451970     -1.572201
  C      -2.703563     -0.521791     -1.365118
  H      -0.866796      1.695990      0.432160
  H       0.329645     -2.040044     -1.305254
  H      -3.703033     -0.669639     -1.738160
  N      -2.029700     -2.678967     -2.321052
  O      -3.145361     -2.764296     -2.821639
  O      -1.167707     -3.540501     -2.422111
  C       1.301907      0.079879      0.161923
  H       1.158135      0.552160      1.303669
  C       2.176165     -1.150175      0.285124
  H       3.058688     -0.930075      0.880150
  H       2.503748     -1.542212     -0.680941
  H       1.609921     -1.927175      0.798667
  N       1.993167      1.187964     -0.503345
  O       3.218472      1.145418     -0.591765
  O       1.340397      2.157989     -0.895930
  O       3.563785      1.365089      3.212673
  H       3.688593      1.185311      4.139441
  N      -3.391707      1.610715     -0.368702
  O      -4.484751      1.456112     -0.869775
  O      -3.101289      2.560761      0.337798
  H       0.635143      1.902617      2.527209
  H       2.591030      1.260181      3.016908
  O       1.044547      1.051881      2.628495
29
Coordinates from ORCA-job /home/rudenko/2025/kie/for_orca/m,m-o2n2c6h4chno2ch3_oh/orca/ts_opt/ts_opt E -1076.751368897409
  C      -2.354554      0.590970     -0.608950
  C      -1.080439      0.777284     -0.098958
  C      -0.078726     -0.159044     -0.366732
  C      -0.406887     -1.278686     -1.124114
  C      -1.696339     -1.425071     -1.618460
  C      -2.696901     -0.502184     -1.384492
  H      -0.872732      1.636598      0.513940
  H       0.330289     -2.031767     -1.352117
  H      -3.692617     -0.631760     -1.773119
  N      -2.016029     -2.614284     -2.422705
  O      -3.134567     -2.690474     -2.916938
  O      -1.157949     -3.477353     -2.539581
  C       1.297863      0.027806      0.192967
  H       1.162201      0.525174      1.322333
  C       2.141555     -1.221551      0.330149
  H       3.025614     -1.018049      0.929025
  H       2.465046     -1.627030     -0.632082
  H       1.554222     -1.982026      0.844658
  N       2.019594      1.114092     -0.477383
  O       3.246890      1.059783     -0.530139
  O       1.389009      2.083795     -0.900496
  O       3.593269      1.548627      3.111700
  H       3.705405      1.405829      4.081217
  N      -3.395390      1.586069     -0.308856
  O      -4.501022      1.416089     -0.791554
  O      -3.098114      2.529166      0.422226
  H       0.591032      1.917595      2.511845
  H       2.611290      1.380899      2.947529
  O       1.048990      1.059503      2.639087
29
Coordinates from ORCA-job /home/rudenko/2025/kie/for_orca/m,m-o2n2c6h4chno2ch3_oh/orca/ts_opt/ts_opt E -1076.751884053661
  C      -2.349912      0.582969     -0.586506
  C      -1.078191      0.747482     -0.063659
  C      -0.079624     -0.185442     -0.351576
  C      -0.409600     -1.285777     -1.137046
  C      -1.699562     -1.416292     -1.636110
  C      -2.695734     -0.492443     -1.386137
  H      -0.865718      1.596021      0.564896
  H       0.325336     -2.036026     -1.381090
  H      -3.689737     -0.606017     -1.784119
  N      -2.023886     -2.583886     -2.467505
  O      -3.143864     -2.647025     -2.957459
  O      -1.165438     -3.438250     -2.617498
  C       1.298330     -0.007974      0.210902
  H       1.164426      0.483946      1.339413
  C       2.137707     -1.261715      0.346252
  H       3.022484     -1.063312      0.947289
  H       2.461410     -1.664440     -0.616827
  H       1.546441     -2.022769      0.856671
  N       2.022510      1.075746     -0.465846
  O       3.255250      1.022250     -0.516886
  O       1.388744      2.034463     -0.911129
  O       3.559384      1.740206      3.075881
  H       3.743208      1.559998      3.999301
  N      -3.379315      1.590016     -0.284988
  O      -4.494613      1.441904     -0.783866
  O      -3.057246      2.543714      0.412481
  H       0.542104      1.806790      2.592131
  H       2.600119      1.479573      2.932464
  O       1.064986      1.006291      2.670564
29
Coordinates from ORCA-job /home/rudenko/2025/kie/for_orca/m,m-o2n2c6h4chno2ch3_oh/orca/ts_opt/ts_opt E -1076.751722293924
  C      -2.346013      0.580772     -0.575871
  C      -1.068752      0.745317     -0.062529
  C      -0.073963     -0.188190     -0.360265
  C      -0.404332     -1.275082     -1.165145
  C      -1.697076     -1.402598     -1.659433
  C      -2.696386     -0.489330     -1.383553
  H      -0.853180      1.586529      0.576594
  H       0.330366     -2.022226     -1.420462
  H      -3.693938     -0.602083     -1.775166
  N      -2.019393     -2.553802     -2.514729
  O      -3.140326     -2.611814     -3.001436
  O      -1.150228     -3.385465     -2.706625
  C       1.300279     -0.032859      0.218022
  H       1.165291      0.465845      1.337915
  C       2.109195     -1.303271      0.374611
  H       2.988602     -1.119404      0.987545
  H       2.438332     -1.719787     -0.580416
  H       1.493622     -2.046851      0.881013
  N       2.054773      1.026546     -0.463712
  O       3.282126      0.970393     -0.457600
  O       1.444638      1.996737     -0.918224
  O       3.545363      1.872973      3.028325
  H       3.756313      1.670922      3.954475
  N      -3.376849      1.576976     -0.249406
  O      -4.504635      1.383997     -0.641753
  O      -3.049640      2.554395      0.393639
  H       0.504270      1.771686      2.610282
  H       2.591555      1.558103      2.896915
  O       1.069986      0.991572      2.676992
29
Coordinates from ORCA-job /home/rudenko/2025/kie/for_orca/m,m-o2n2c6h4chno2ch3_oh/orca/ts_opt/ts_opt E -1076.751988207222
  C      -2.340259      0.581745     -0.562446
  C      -1.069658      0.722385     -0.027804
  C      -0.077128     -0.208562     -0.340159
  C      -0.404284     -1.272678     -1.175395
  C      -1.690286     -1.377502     -1.689496
  C      -2.684829     -0.460487     -1.406364
  H      -0.854810      1.547892      0.631234
  H       0.328703     -2.018768     -1.439609
  H      -3.677972     -0.556098     -1.812065
  N      -2.010155     -2.508944     -2.573094
  O      -3.129549     -2.554525     -3.065647
  O      -1.144594     -3.355510     -2.760352
  C       1.297436     -0.069008      0.245751
  H       1.175191      0.429312      1.358403
  C       2.090431     -1.349855      0.405138
  H       2.971008     -1.175969      1.019613
  H       2.416279     -1.771209     -0.548770
  H       1.464172     -2.085065      0.911018
  N       2.063397      0.976649     -0.448352
  O       3.294508      0.909344     -0.441011
  O       1.461106      1.937738     -0.931488
  O       3.488585      2.055973      2.947181
  H       3.791416      1.832954      3.835680
  N      -3.374352      1.570676     -0.217680
  O      -4.513154      1.370155     -0.626775
  O      -3.040599      2.544367      0.454161
  H       0.487503      1.685787      2.686077
  H       2.574019      1.651252      2.858575
  O       1.107873      0.947952      2.713675
29
Coordinates from ORCA-job /home/rudenko/2025/kie/for_orca/m,m-o2n2c6h4chno2ch3_oh/orca/ts_opt/ts_opt E -1076.751881902378
  C      -2.336575      0.575841     -0.544088
  C      -1.062084      0.713383     -0.015722
  C      -0.072864     -0.215891     -0.339548
  C      -0.399112     -1.263419     -1.196018
  C      -1.686883     -1.361921     -1.708157
  C      -2.684722     -0.457272     -1.398789
  H      -0.843675      1.531797      0.651932
  H       0.334739     -2.003138     -1.474591
  H      -3.679246     -0.548036     -1.803013
  N      -2.005474     -2.470525     -2.619024
  O      -3.129420     -2.517313     -3.097491
  O      -1.133125     -3.293678     -2.846569
  C       1.299929     -0.092203      0.257299
  H       1.180598      0.405000      1.362415
  C       2.070307     -1.385734      0.430149
  H       2.946855     -1.222997      1.053299
  H       2.399127     -1.816959     -0.518000
  H       1.426341     -2.107577      0.932962
  N       2.088956      0.934103     -0.442707
  O       3.320425      0.837799     -0.437385
  O       1.507821      1.881057     -0.972388
  O       3.434148      2.201402      2.910358
  H       3.794112      1.959936      3.773070
  N      -3.367618      1.559409     -0.180705
  O      -4.515907      1.339792     -0.522260
  O      -3.021726      2.558431      0.420408
  H       0.462410      1.615308      2.742966
  H       2.545519      1.726835      2.840930
  O       1.127142      0.916568      2.740665
29
Coordinates from ORCA-job /home/rudenko/2025/kie/for_orca/m,m-o2n2c6h4chno2ch3_oh/orca/ts_opt/ts_opt E -1076.751862546711
  C      -2.330889      0.570867     -0.527670
  C      -1.057573      0.695980      0.006068
  C      -0.070346     -0.228722     -0.334243
  C      -0.396246     -1.260032     -1.209837
  C      -1.681473     -1.344297     -1.728971
  C      -2.677963     -0.443114     -1.404449
  H      -0.837261      1.503224      0.686929
  H       0.337095     -1.996129     -1.499247
  H      -3.671798     -0.524163     -1.812386
  N      -1.997862     -2.432183     -2.665154
  O      -3.120613     -2.467393     -3.146854
  O      -1.119584     -3.240619     -2.919678
  C       1.302557     -0.119057      0.266011
  H       1.189778      0.386912      1.357244
  C       2.048163     -1.423966      0.463104
  H       2.925197     -1.266046      1.087566
  H       2.372507     -1.876455     -0.476634
  H       1.388621     -2.124857      0.975790
  N       2.111869      0.875724     -0.460092
  O       3.333027      0.795179     -0.394929
  O       1.542433      1.835571     -0.984080
  O       3.373201      2.336429      2.856450
  H       3.812704      2.068847      3.666987
  N      -3.362821      1.547459     -0.147041
  O      -4.519795      1.313283     -0.474291
  O      -3.009510      2.545683      0.469582
  H       0.448520      1.563652      2.785230
  H       2.514961      1.802332      2.808760
  O       1.153100      0.905893      2.755837
29
Coordinates from ORCA-job /home/rudenko/2025/kie/for_orca/m,m-o2n2c6h4chno2ch3_oh/orca/ts_opt/ts_opt E -1076.752076039677
  C      -2.328705      0.570801     -0.516897
  C      -1.057026      0.688350      0.023081
  C      -0.070634     -0.233295     -0.325593
  C      -0.390501     -1.247010     -1.223536
  C      -1.672265     -1.321098     -1.752037
  C      -2.671342     -0.427669     -1.412800
  H      -0.838693      1.484786      0.717218
  H       0.345201     -1.977525     -1.521910
  H      -3.663620     -0.502216     -1.825851
  N      -1.983262     -2.391192     -2.711821
  O      -3.107608     -2.425036     -3.190491
  O      -1.102232     -3.198673     -2.975694
  C       1.300703     -0.135061      0.284162
  H       1.199053      0.372020      1.360100
  C       2.024817     -1.450527      0.499147
  H       2.900756     -1.298744      1.126370
  H       2.345541     -1.919781     -0.433048
  H       1.351216     -2.133412      1.017710
  N       2.127661      0.838328     -0.457703
  O       3.353809      0.724049     -0.414061
  O       1.572607      1.774243     -1.033759
  O       3.300270      2.455751      2.803662
  H       3.823992      2.170346      3.567794
  N      -3.364551      1.534400     -0.117638
  O      -4.524331      1.276851     -0.402340
  O      -3.012985      2.547225      0.469464
  H       0.459100      1.488211      2.867706
  H       2.485196      1.857230      2.788031
  O       1.197833      0.878651      2.790735
29
Coordinates from ORCA-job /home/rudenko/2025/kie/for_orca/m,m-o2n2c6h4chno2ch3_oh/orca/ts_opt/ts_opt E -1076.752024997380
  C      -2.314639      0.559408     -0.485708
  C      -1.041102      0.662804      0.052307
  C      -0.057759     -0.249815     -0.322721
  C      -0.378504     -1.237143     -1.248822
  C      -1.661743     -1.295643     -1.776024
  C      -2.660433     -0.414225     -1.406297
  H      -0.820198      1.437833      0.769174
  H       0.356490     -1.959133     -1.568105
  H      -3.654605     -0.478215     -1.817030
  N      -1.977316     -2.335585     -2.766037
  O      -3.103908     -2.355487     -3.238462
  O      -1.095445     -3.123065     -3.068989
  C       1.310311     -0.171074      0.297742
  H       1.206992      0.348790      1.355212
  C       2.005138     -1.500127      0.532120
  H       2.879102     -1.359965      1.164397
  H       2.322416     -1.985632     -0.392880
  H       1.312899     -2.162251      1.052404
  N       2.168592      0.772573     -0.452354
  O       3.387388      0.637989     -0.381829
  O       1.639901      1.705671     -1.054441
  O       3.201238      2.588642      2.742399
  H       3.809032      2.312386      3.418711
  N      -3.347938      1.511494     -0.056392
  O      -4.512141      1.243120     -0.313168
  O      -2.989774      2.528175      0.519218
  H       0.406117      1.486126      2.876092
  H       2.422895      1.934732      2.759041
  O       1.186994      0.897619      2.810441
29
Coordinates from ORCA-job /home/rudenko/2025/kie/for_orca/m,m-o2n2c6h4chno2ch3_oh/orca/ts_opt/ts_opt E -1076.752354573931
  C      -2.314873      0.555978     -0.475632
  C      -1.045449      0.647655      0.074560
  C      -0.060746     -0.259256     -0.310973
  C      -0.374138     -1.228841     -1.258421
  C      -1.653390     -1.277329     -1.794976
  C      -2.654603     -0.402117     -1.414745
  H      -0.826858      1.413161      0.803582
  H       0.363994     -1.944248     -1.586459
  H      -3.645307     -0.457225     -1.834615
  N      -1.962251     -2.298617     -2.807441
  O      -3.088594     -2.314454     -3.281101
  O      -1.075466     -3.078276     -3.124005
  C       1.307089     -0.187987      0.314581
  H       1.218353      0.335279      1.351670
  C       1.985525     -1.522410      0.570169
  H       2.862099     -1.382134      1.199377
  H       2.293871     -2.027394     -0.346667
  H       1.284303     -2.165037      1.103694
  N       2.176871      0.734078     -0.458896
  O       3.392368      0.597052     -0.373315
  O       1.652889      1.658538     -1.078750
  O       3.129860      2.686441      2.671287
  H       3.811015      2.392604      3.300649
  N      -3.348359      1.506768     -0.043014
  O      -4.517648      1.226706     -0.271853
  O      -2.983236      2.524991      0.529885
  H       0.444295      1.397921      2.974787
  H       2.392761      1.982909      2.723924
  O       1.235623      0.885244      2.842698
29
Coordinates from ORCA-job /home/rudenko/2025/kie/for_orca/m,m-o2n2c6h4chno2ch3_oh/orca/ts_opt/ts_opt E -1076.752716492649
  C      -2.302208      0.549302     -0.448741
  C      -1.032553      0.628558      0.103464
  C      -0.049838     -0.270335     -0.302489
  C      -0.360357     -1.214308     -1.276414
  C      -1.638236     -1.247293     -1.816707
  C      -2.640225     -0.383253     -1.413028
  H      -0.814079      1.372851      0.853908
  H       0.378375     -1.921657     -1.620675
  H      -3.631214     -0.428834     -1.834003
  N      -1.947554     -2.241784     -2.855727
  O      -3.074766     -2.245929     -3.327515
  O      -1.060897     -3.012956     -3.193534
  C       1.314219     -0.217573      0.332755
  H       1.228726      0.317979      1.350692
  C       1.961711     -1.565330      0.602653
  H       2.839290     -1.439157      1.232578
  H       2.259452     -2.085634     -0.309051
  H       1.243992     -2.185136      1.140349
  N       2.213285      0.677142     -0.449804
  O       3.423741      0.514604     -0.351028
  O       1.712675      1.595355     -1.094460
  O       3.016927      2.785640      2.592188
  H       3.779600      2.521849      3.114506
  N      -3.338926      1.481581      0.013107
  O      -4.508244      1.187393     -0.202014
  O      -2.980458      2.510477      0.563666
  H       0.422197      1.386324      3.023637
  H       2.335593      2.033033      2.693234
  O       1.249771      0.897091      2.878455
29
Coordinates from ORCA-job /home/rudenko/2025/kie/for_orca/m,m-o2n2c6h4chno2ch3_oh/orca/ts_opt/ts_opt E -1076.752988584562
  C      -2.298800      0.540690     -0.433345
  C      -1.031304      0.610864      0.125840
  C      -0.044847     -0.275315     -0.297882
  C      -0.347891     -1.196762     -1.295992
  C      -1.623690     -1.220785     -1.841205
  C      -2.630136     -0.369762     -1.420263
  H      -0.817616      1.335945      0.896656
  H       0.394041     -1.894293     -1.653200
  H      -3.619923     -0.409942     -1.844803
  N      -1.928173     -2.192701     -2.902801
  O      -3.055826     -2.193619     -3.372607
  O      -1.037056     -2.947030     -3.262178
  C       1.314406     -0.236524      0.349854
  H       1.232102      0.314086      1.347279
  C       1.932642     -1.593009      0.645243
  H       2.811350     -1.474178      1.275230
  H       2.219496     -2.135223     -0.256849
  H       1.199801     -2.186457      1.192445
  N       2.241323      0.627924     -0.445456
  O       3.446396      0.441191     -0.335151
  O       1.762998      1.538144     -1.114414
  O       2.952686      2.866877      2.524579
  H       3.782293      2.595171      2.934305
  N      -3.340619      1.455893      0.049429
  O      -4.506747      1.144351     -0.145194
  O      -2.984871      2.478650      0.622160
  H       0.423250      1.364774      3.084397
  H       2.295717      2.085405      2.663187
  O       1.258998      0.925635      2.910734
29
Coordinates from ORCA-job /home/rudenko/2025/kie/for_orca/m,m-o2n2c6h4chno2ch3_oh/orca/ts_opt/ts_opt E -1076.753242818555
  C      -2.289944      0.528865     -0.402452
  C      -1.025129      0.583346      0.164723
  C      -0.036738     -0.289730     -0.280112
  C      -0.333059     -1.181480     -1.306653
  C      -1.606060     -1.190678     -1.857439
  C      -2.616150     -0.354469     -1.414856
  H      -0.813420      1.288014      0.955215
  H       0.412586     -1.865148     -1.682857
  H      -3.603193     -0.382211     -1.846097
  N      -1.903219     -2.128767     -2.950779
  O      -3.029921     -2.118975     -3.423610
  O      -1.008322     -2.871415     -3.326768
  C       1.319843     -0.265549      0.374840
  H       1.244829      0.298428      1.352506
  C       1.913760     -1.629898      0.685140
  H       2.797783     -1.520195      1.309465
  H       2.184495     -2.187654     -0.211940
  H       1.171321     -2.201361      1.242957
  N       2.268711      0.575709     -0.431346
  O       3.468462      0.372127     -0.307910
  O       1.805560      1.485079     -1.111438
  O       2.832141      2.927418      2.410811
  H       3.717234      2.680456      2.699531
  N      -3.330741      1.437888      0.094190
  O      -4.500519      1.126709     -0.091537
  O      -2.971502      2.460630      0.657449
  H       0.419601      1.354976      3.139523
  H       2.234239      2.116239      2.612804
  O       1.277350      0.951648      2.946640
29
Coordinates from ORCA-job /home/rudenko/2025/kie/for_orca/m,m-o2n2c6h4chno2ch3_oh/orca/ts_opt/ts_opt E -1076.753536389617
  C      -2.278798      0.518120     -0.374818
  C      -1.016389      0.558871      0.199313
  C      -0.024889     -0.298306     -0.267413
  C      -0.313505     -1.158808     -1.322880
  C      -1.584502     -1.155273     -1.878195
  C      -2.598583     -0.334918     -1.414399
  H      -0.809594      1.236881      1.013876
  H       0.435681     -1.829351     -1.715843
  H      -3.585098     -0.354752     -1.848307
  N      -1.877020     -2.063836     -2.998281
  O      -3.002048     -2.041598     -3.474351
  O      -0.978779     -2.789367     -3.396864
  C       1.324955     -0.294805      0.400612
  H       1.252156      0.286047      1.362655
  C       1.885735     -1.669504      0.725527
  H       2.772928     -1.575793      1.347387
  H       2.139697     -2.242364     -0.166878
  H       1.129467     -2.215918      1.289423
  N       2.303183      0.519433     -0.408188
  O       3.495956      0.287778     -0.274475
  O       1.865472      1.423558     -1.107985
  O       2.750506      2.997224      2.287914
  H       3.663262      2.747547      2.464493
  N      -3.324915      1.406331      0.146703
  O      -4.490726      1.083794     -0.036803
  O      -2.971014      2.417540      0.740529
  H       0.395926      1.364536      3.178261
  H       2.174822      2.173950      2.551166
  O       1.266112      1.002983      2.977822
29
Coordinates from ORCA-job /home/rudenko/2025/kie/for_orca/m,m-o2n2c6h4chno2ch3_oh/orca/ts_opt/ts_opt E -1076.753697244244
  C      -2.262292      0.510653     -0.340331
  C      -1.002186      0.534838      0.240295
  C      -0.010335     -0.311044     -0.245387
  C      -0.293566     -1.140509     -1.326998
  C      -1.561323     -1.119697     -1.887818
  C      -2.578142     -0.313816     -1.403867
  H      -0.796050      1.192548      1.072320
  H       0.458272     -1.798066     -1.736708
  H      -3.561951     -0.319672     -1.843730
  N      -1.845728     -1.990430     -3.039141
  O      -2.969490     -1.957764     -3.517982
  O      -0.943305     -2.701060     -3.455139
  C       1.335922     -0.326937      0.429205
  H       1.269352      0.264192      1.375702
  C       1.869306     -1.709726      0.763810
  H       2.763939     -1.630711      1.377239
  H       2.101311     -2.295115     -0.126224
  H       1.104998     -2.233669      1.338519
  N       2.334996      0.463958     -0.387595
  O       3.521857      0.214547     -0.243476
  O       1.913210      1.367450     -1.097376
  O       2.603768      3.036949      2.141194
  H       3.537189      2.807473      2.197995
  N      -3.307829      1.390238      0.196970
  O      -4.475502      1.070420      0.014570
  O      -2.952027      2.394085      0.797761
  H       0.384469      1.357550      3.220584
  H       2.090252      2.203791      2.478881
  O       1.270885      1.039525      3.006726
29
Coordinates from ORCA-job /home/rudenko/2025/kie/for_orca/m,m-o2n2c6h4chno2ch3_oh/orca/ts_opt/ts_opt E -1076.753893829494
  C      -2.246460      0.499915     -0.307048
  C      -0.987462      0.511463      0.276764
  C       0.006936     -0.317888     -0.230421
  C      -0.270411     -1.114623     -1.338158
  C      -1.536934     -1.080800     -1.901110
  C      -2.557733     -0.293581     -1.394923
  H      -0.783930      1.144687      1.127993
  H       0.484700     -1.757074     -1.765351
  H      -3.541459     -0.291180     -1.835789
  N      -1.816106     -1.917262     -3.079099
  O      -2.938676     -1.873002     -3.559529
  O      -0.909948     -2.609002     -3.516449
  C       1.347000     -0.356634      0.454537
  H       1.281874      0.249598      1.390514
  C       1.845496     -1.748822      0.801878
  H       2.745956     -1.688692      1.408616
  H       2.054265     -2.348835     -0.084358
  H       1.070598     -2.246161      1.385854
  N       2.372299      0.404673     -0.365276
  O       3.551237      0.137059     -0.204870
  O       1.974410      1.293769     -1.102569
  O       2.503994      3.087043      2.001884
  H       3.432465      2.842303      1.959530
  N      -3.295921      1.359465      0.253959
  O      -4.460559      1.036391      0.064020
  O      -2.944548      2.346193      0.888498
  H       0.355204      1.373743      3.244499
  H       2.011427      2.259024      2.401042
  O       1.252287      1.098230      3.025363
29
Coordinates from ORCA-job /home/rudenko/2025/kie/for_orca/m,m-o2n2c6h4chno2ch3_oh/orca/ts_opt/ts_opt E -1076.754062466397
  C      -2.226060      0.492939     -0.269033
  C      -0.969066      0.488375      0.319260
  C       0.026856     -0.326211     -0.207972
  C      -0.245162     -1.089436     -1.340469
  C      -1.509213     -1.039245     -1.906766
  C      -2.533219     -0.269294     -1.380117
  H      -0.766873      1.098899      1.187536
  H       0.513241     -1.716260     -1.785198
  H      -3.515066     -0.254351     -1.824478
  N      -1.780932     -1.836942     -3.112899
  O      -2.902639     -1.782874     -3.594724
  O      -0.870243     -2.510886     -3.568519
  C       1.362710     -0.386493      0.483269
  H       1.303084      0.228940      1.407317
  C       1.829808     -1.786499      0.840402
  H       2.738637     -1.744648      1.436201
  H       2.011161     -2.399340     -0.043019
  H       1.048561     -2.258271      1.437136
  N       2.408282      0.346749     -0.343040
  O       3.581429      0.064234     -0.166979
  O       2.027675      1.227185     -1.100089
  O       2.352248      3.103934      1.835847
  H       3.271016      2.853596      1.699176
  N      -3.276222      1.339354      0.310527
  O      -4.441379      1.022227      0.112342
  O      -2.924779      2.309784      0.967866
  H       0.332768      1.382602      3.262869
  H       1.911085      2.288697      2.308007
  O       1.242292      1.153235      3.035548
29
Coordinates from ORCA-job /home/rudenko/2025/kie/for_orca/m,m-o2n2c6h4chno2ch3_oh/orca/ts_opt/ts_opt E -1076.754230009574
  C      -2.207707      0.485582     -0.238755
  C      -0.951728      0.467777      0.351596
  C       0.045672     -0.331798     -0.194362
  C      -0.223127     -1.066820     -1.346672
  C      -1.486235     -1.003650     -1.913724
  C      -2.512337     -0.248795     -1.369095
  H      -0.750385      1.056477      1.235093
  H       0.537261     -1.680858     -1.806088
  H      -3.493780     -0.224532     -1.814330
  N      -1.754712     -1.769654     -3.141244
  O      -2.877017     -1.708412     -3.620567
  O      -0.840689     -2.424091     -3.617207
  C       1.377383     -0.411485      0.502836
  H       1.322560      0.215204      1.420044
  C       1.811192     -1.818684      0.872607
  H       2.728237     -1.795950      1.456574
  H       1.963061     -2.445483     -0.006765
  H       1.024332     -2.262461      1.483326
  N       2.442571      0.289184     -0.330887
  O       3.608402      0.006938     -0.126126
  O       2.081933      1.136948     -1.130311
  O       2.233170      3.140619      1.716068
  H       3.129920      2.873585      1.498751
  N      -3.258914      1.317540      0.359331
  O      -4.423778      1.007680      0.147514
  O      -2.908366      2.268015      1.045998
  H       0.323179      1.387560      3.287009
  H       1.822986      2.334568      2.235714
  O       1.236917      1.204995      3.043670
29
Coordinates from ORCA-job /home/rudenko/2025/kie/for_orca/m,m-o2n2c6h4chno2ch3_oh/orca/ts_opt/ts_opt E -1076.754427429375
  C      -2.184101      0.486101     -0.207226
  C      -0.929956      0.452412      0.386653
  C       0.067231     -0.336163     -0.174947
  C      -0.199088     -1.044117     -1.344909
  C      -1.459453     -0.964336     -1.914863
  C      -2.486164     -0.220360     -1.355879
  H      -0.729017      1.020427      1.284006
  H       0.561977     -1.648670     -1.816171
  H      -3.465792     -0.183568     -1.803971
  N      -1.724144     -1.699928     -3.162020
  O      -2.846053     -1.628803     -3.641437
  O      -0.806932     -2.339642     -3.653996
  C       1.395452     -0.436975      0.525903
  H       1.350328      0.194253      1.435131
  C       1.797095     -1.852277      0.901183
  H       2.721936     -1.851092      1.472854
  H       1.919205     -2.487680      0.023311
  H       1.006343     -2.270931      1.524189
  N       2.479501      0.235964     -0.309247
  O       3.639875     -0.059250     -0.080881
  O       2.138013      1.075081     -1.129062
  O       2.064882      3.147899      1.565794
  H       2.935290      2.873840      1.263618
  N      -3.235845      1.304926      0.407754
  O      -4.400465      1.003959      0.184246
  O      -2.885477      2.234332      1.122528
  H       0.319996      1.384148      3.306796
  H       1.716685      2.358275      2.146543
  O       1.238678      1.252176      3.044101
29
Coordinates from ORCA-job /home/rudenko/2025/kie/for_orca/m,m-o2n2c6h4chno2ch3_oh/orca/ts_opt/ts_opt E -1076.754563034573
  C      -2.162055      0.486285     -0.185093
  C      -0.906357      0.445023      0.405878
  C       0.089920     -0.333534     -0.169974
  C      -0.177583     -1.022003     -1.351320
  C      -1.439273     -0.934548     -1.917726
  C      -2.466051     -0.202184     -1.344190
  H      -0.703140      0.997911      1.312269
  H       0.582512     -1.620171     -1.831999
  H      -3.447032     -0.160205     -1.789583
  N      -1.706535     -1.648884     -3.176458
  O      -2.833486     -1.583915     -3.643899
  O      -0.788188     -2.267129     -3.689385
  C       1.412500     -0.459266      0.536416
  H       1.377898      0.178167      1.445631
  C       1.774824     -1.883924      0.919066
  H       2.704820     -1.907640      1.481397
  H       1.868066     -2.528118      0.043804
  H       0.977666     -2.274213      1.551887
  N       2.518471      0.181350     -0.293383
  O       3.668509     -0.108719     -0.024171
  O       2.206629      0.992862     -1.149016
  O       1.923506      3.185787      1.470565
  H       2.766588      2.913973      1.101989
  N      -3.213881      1.292344      0.446157
  O      -4.378171      1.007452      0.200770
  O      -2.863933      2.194053      1.196493
  H       0.334825      1.370956      3.328305
  H       1.629527      2.399521      2.085550
  O       1.249424      1.288769      3.040017
29
Coordinates from ORCA-job /home/rudenko/2025/kie/for_orca/m,m-o2n2c6h4chno2ch3_oh/orca/ts_opt/ts_opt E -1076.754762466923
  C      -2.134457      0.495578     -0.160257
  C      -0.879490      0.440305      0.431083
  C       0.114240     -0.332486     -0.156684
  C      -0.154824     -1.002095     -1.348254
  C      -1.414341     -0.899092     -1.915445
  C      -2.438725     -0.171044     -1.331812
  H      -0.674139      0.977356      1.346435
  H       0.603257     -1.597051     -1.836409
  H      -3.418631     -0.118507     -1.777362
  N      -1.682686     -1.594827     -3.184431
  O      -2.809845     -1.518534     -3.651038
  O      -0.763396     -2.209770     -3.706196
  C       1.432897     -0.481837      0.551278
  H       1.413259      0.154462      1.455993
  C       1.758944     -1.915302      0.936738
  H       2.695111     -1.963366      1.487445
  H       1.822156     -2.565103      0.062939
  H       0.958620     -2.279463      1.581098
  N       2.557009      0.130635     -0.272829
  O       3.702216     -0.170698      0.024291
  O       2.267263      0.937560     -1.144762
  O       1.733216      3.192452      1.349631
  H       2.548451      2.929930      0.914398
  N      -3.186233      1.289151      0.487068
  O      -4.349779      1.024569      0.219808
  O      -2.837377      2.158657      1.274869
  H       0.354489      1.347255      3.337411
  H       1.518256      2.419082      2.005288
  O       1.264540      1.322182      3.019705
29
Coordinates from ORCA-job /home/rudenko/2025/kie/for_orca/m,m-o2n2c6h4chno2ch3_oh/orca/ts_opt/ts_opt E -1076.755031446625
  C      -2.103673      0.506407     -0.138651
  C      -0.848128      0.437212      0.449721
  C       0.140373     -0.333517     -0.148986
  C      -0.133047     -0.985697     -1.349137
  C      -1.392694     -0.868058     -1.913572
  C      -2.412725     -0.143195     -1.318446
  H      -0.637501      0.961413      1.371259
  H       0.620932     -1.579319     -1.845007
  H      -3.392889     -0.079741     -1.761977
  N      -1.667117     -1.544417     -3.191174
  O      -2.797983     -1.468154     -3.647811
  O      -0.749826     -2.144273     -3.730330
  C       1.454803     -0.504469      0.561400
  H       1.445181      0.136315      1.465806
  C       1.748919     -1.943841      0.955476
  H       2.686618     -2.010309      1.501480
  H       1.791992     -2.600401      0.085627
  H       0.943485     -2.284248      1.606124
  N       2.596900      0.079901     -0.255609
  O       3.731971     -0.214221      0.077858
  O       2.334828      0.860344     -1.157731
  O       1.527186      3.190667      1.247331
  H       2.309140      2.946266      0.746236
  N      -3.151417      1.293910      0.523006
  O      -4.316319      1.058718      0.231051
  O      -2.799640      2.131768      1.342186
  H       0.384675      1.319923      3.353898
  H       1.405667      2.431115      1.939408
  O       1.280288      1.349901      3.000563
29
Coordinates from ORCA-job /home/rudenko/2025/kie/for_orca/m,m-o2n2c6h4chno2ch3_oh/orca/ts_opt/ts_opt E -1076.755275569051
  C      -2.074356      0.518812     -0.118602
  C      -0.822087      0.427970      0.472953
  C       0.161105     -0.343721     -0.133371
  C      -0.115323     -0.979836     -1.341337
  C      -1.371048     -0.840033     -1.909045
  C      -2.385118     -0.110928     -1.308461
  H      -0.606894      0.940603      1.399706
  H       0.634846     -1.573574     -1.843023
  H      -3.361808     -0.028933     -1.755658
  N      -1.646966     -1.494115     -3.197366
  O      -2.775941     -1.399724     -3.656083
  O      -0.730685     -2.092715     -3.743815
  C       1.475014     -0.527351      0.574886
  H       1.479873      0.118495      1.475114
  C       1.748480     -1.970182      0.975797
  H       2.690631     -2.049407      1.512718
  H       1.771307     -2.632219      0.109257
  H       0.943503     -2.292281      1.636554
  N       2.625534      0.031602     -0.246774
  O       3.758018     -0.255928      0.109559
  O       2.375363      0.786846     -1.174969
  O       1.308368      3.179585      1.159510
  H       2.037889      2.944436      0.579726
  N      -3.115428      1.310335      0.549570
  O      -4.281921      1.107290      0.238236
  O      -2.758101      2.119645      1.392970
  H       0.438935      1.291304      3.382450
  H       1.286780      2.437561      1.879592
  O       1.310032      1.376460      2.979906
29
Coordinates from ORCA-job /home/rudenko/2025/kie/for_orca/m,m-o2n2c6h4chno2ch3_oh/orca/ts_opt/ts_opt E -1076.755406569426
  C      -2.056029      0.530003     -0.109060
  C      -0.804780      0.428801      0.483636
  C       0.175998     -0.343358     -0.126561
  C      -0.103049     -0.971753     -1.337857
  C      -1.359158     -0.824676     -1.904979
  C      -2.369433     -0.092853     -1.301951
  H      -0.586785      0.936219      1.412042
  H       0.643072     -1.569213     -1.840687
  H      -3.345729     -0.003274     -1.749675
  N      -1.639573     -1.471467     -3.195813
  O      -2.772144     -1.385797     -3.646170
  O      -0.726104     -2.060795     -3.751916
  C       1.487075     -0.538731      0.583464
  H       1.502005      0.108901      1.482949
  C       1.748234     -1.984881      0.982405
  H       2.688751     -2.072287      1.520212
  H       1.767181     -2.645393      0.114577
  H       0.940066     -2.301505      1.641200
  N       2.643324      0.010940     -0.234315
  O       3.771325     -0.269435      0.136592
  O       2.402978      0.752141     -1.175657
  O       1.181055      3.160747      1.116304
  H       1.876943      2.931612      0.494485
  N      -3.093077      1.326746      0.559458
  O      -4.257769      1.145418      0.231080
  O      -2.735151      2.115414      1.422935
  H       0.473745      1.269624      3.388191
  H       1.219355      2.430338      1.847661
  O       1.327676      1.388514      2.957451
29
Coordinates from ORCA-job /home/rudenko/2025/kie/for_orca/m,m-o2n2c6h4chno2ch3_oh/orca/ts_opt/ts_opt E -1076.755464057795
  C      -2.048411      0.534208     -0.103955
  C      -0.799592      0.424235      0.492017
  C       0.180014     -0.349230     -0.118836
  C      -0.100509     -0.975743     -1.330531
  C      -1.354573     -0.821265     -1.900118
  C      -2.361847     -0.083966     -1.299239
  H      -0.580858      0.929288      1.421002
  H       0.643911     -1.574967     -1.833739
  H      -3.335958      0.012695     -1.749607
  N      -1.634874     -1.465415     -3.191913
  O      -2.764046     -1.363885     -3.648920
  O      -0.722445     -2.065833     -3.742561
  C       1.491891     -0.546824      0.589637
  H       1.514684      0.102532      1.490050
  C       1.753127     -1.994714      0.981944
  H       2.693202     -2.084140      1.520656
  H       1.774238     -2.650448      0.110387
  H       0.944039     -2.315658      1.637807
  N       2.646203      0.002715     -0.231916
  O       3.777057     -0.276510      0.136466
  O       2.401337      0.746369     -1.171670
  O       1.113289      3.158979      1.102558
  H       1.798779      2.938298      0.467419
  N      -3.080399      1.342122      0.559120
  O      -4.244930      1.177154      0.222546
  O      -2.718821      2.122927      1.427297
  H       0.496849      1.254632      3.389326
  H       1.181110      2.428520      1.834518
  O       1.337531      1.393925      2.940255
29
Coordinates from ORCA-job /home/rudenko/2025/kie/for_orca/m,m-o2n2c6h4chno2ch3_oh/orca/ts_opt/ts_opt E -1076.755484313961
  C      -2.037432      0.543093     -0.104193
  C      -0.787946      0.430490      0.490482
  C       0.188354     -0.347968     -0.119450
  C      -0.096249     -0.976251     -1.329228
  C      -1.352188     -0.821770     -1.896478
  C      -2.355699     -0.079073     -1.296555
  H      -0.566649      0.935567      1.418579
  H       0.644302     -1.580901     -1.831399
  H      -3.330968      0.018558     -1.745110
  N      -1.639168     -1.472071     -3.183789
  O      -2.771754     -1.381239     -3.633224
  O      -0.732180     -2.072028     -3.737679
  C       1.497874     -0.553746      0.590819
  H       1.527315      0.094588      1.490840
  C       1.752618     -2.003829      0.977934
  H       2.683872     -2.096597      1.530691
  H       1.788020     -2.653863      0.102711
  H       0.933789     -2.329523      1.618475
  N       2.656373     -0.006253     -0.226434
  O       3.783581     -0.288521      0.144674
  O       2.419272      0.737146     -1.166754
  O       1.042376      3.174944      1.116944
  H       1.730103      2.987908      0.473865
  N      -3.065014      1.359927      0.554813
  O      -4.226661      1.213982      0.201935
  O      -2.703171      2.128761      1.435285
  H       0.523850      1.218732      3.377665
  H       1.144428      2.432324      1.834178
  O       1.348952      1.387613      2.910400
29
Coordinates from ORCA-job /home/rudenko/2025/kie/for_orca/m,m-o2n2c6h4chno2ch3_oh/orca/ts_opt/ts_opt E -1076.755505396575
  C      -2.043741      0.537929     -0.107428
  C      -0.794693      0.426641      0.487929
  C       0.182328     -0.351886     -0.120662
  C      -0.101349     -0.982484     -1.329441
  C      -1.356273     -0.828325     -1.897815
  C      -2.360665     -0.085378     -1.299364
  H      -0.573904      0.934033      1.415087
  H       0.640617     -1.585847     -1.831288
  H      -3.335220      0.011681     -1.748827
  N      -1.640575     -1.479133     -3.185358
  O      -2.770552     -1.379347     -3.640549
  O      -0.731759     -2.084570     -3.734109
  C       1.493663     -0.552327      0.587981
  H       1.519912      0.097491      1.489350
  C       1.753893     -2.001138      0.976409
  H       2.686533     -2.090416      1.527921
  H       1.789909     -2.652205      0.101830
  H       0.936894     -2.328829      1.618858
  N       2.648476     -0.002340     -0.233242
  O       3.778931     -0.287492      0.130733
  O       2.404931      0.746525     -1.168546
  O       1.082273      3.191577      1.132707
  H       1.783109      3.006582      0.503294
  N      -3.071729      1.354876      0.550797
  O      -4.234943      1.202977      0.205159
  O      -2.708241      2.129892      1.424307
  H       0.512839      1.225190      3.379001
  H       1.164968      2.441861      1.845594
  O       1.344368      1.384463      2.919671
29
Coordinates from ORCA-job /home/rudenko/2025/kie/for_orca/m,m-o2n2c6h4chno2ch3_oh/orca/ts_opt/ts_opt E -1076.755373727329
  C      -2.067503      0.528887     -0.130615
  C      -0.814926      0.435571      0.460771
  C       0.163615     -0.347314     -0.139155
  C      -0.118994     -0.994153     -1.340252
  C      -1.377143     -0.856744     -1.905489
  C      -2.385143     -0.114254     -1.311651
  H      -0.594483      0.957527      1.381002
  H       0.625390     -1.599728     -1.835877
  H      -3.363242     -0.032354     -1.757452
  N      -1.662917     -1.526363     -3.184083
  O      -2.794334     -1.439854     -3.636443
  O      -0.755397     -2.135234     -3.728478
  C       1.477036     -0.531750      0.569950
  H       1.482225      0.109655      1.470119
  C       1.757495     -1.975027      0.963840
  H       2.692010     -2.049965      1.513901
  H       1.799710     -2.630264      0.092905
  H       0.946224     -2.309744      1.609897
  N       2.623652      0.037174     -0.247361
  O       3.754705     -0.248383      0.104214
  O       2.372276      0.796281     -1.170213
  O       1.274143      3.215204      1.223973
  H       2.035058      3.045342      0.661587
  N      -3.101760      1.339452      0.525854
  O      -4.267947      1.149841      0.207956
  O      -2.739643      2.148304      1.368258
  H       0.449867      1.237063      3.364128
  H       1.272969      2.445238      1.911093
  O       1.317054      1.345592      2.957624
29
Coordinates from ORCA-job /home/rudenko/2025/kie/for_orca/m,m-o2n2c6h4chno2ch3_oh/orca/ts_opt/ts_opt E -1076.755491843071
  C      -2.060074      0.531577     -0.126412
  C      -0.809418      0.430539      0.467386
  C       0.166886     -0.355561     -0.132307
  C      -0.117842     -1.001322     -1.333092
  C      -1.373737     -0.856130     -1.900820
  C      -2.378547     -0.107913     -1.309271
  H      -0.588040      0.949713      1.388374
  H       0.624682     -1.608869     -1.829260
  H      -3.354400     -0.018987     -1.757525
  N      -1.658728     -1.522845     -3.180414
  O      -2.787348     -1.423359     -3.639000
  O      -0.750852     -2.137948     -3.720029
  C       1.481092     -0.543524      0.574685
  H       1.495746      0.103481      1.480112
  C       1.758893     -1.989176      0.961467
  H       2.689938     -2.067271      1.517361
  H       1.807689     -2.638807      0.086428
  H       0.943326     -2.328728      1.599787
  N       2.626502      0.022654     -0.247773
  O       3.761694     -0.269132      0.097055
  O       2.370508      0.788779     -1.165776
  O       1.209462      3.240633      1.217373
  H       1.966158      3.088022      0.645833
  N      -3.088979      1.352459      0.525526
  O      -4.254561      1.182819      0.194927
  O      -2.723282      2.149523      1.377847
  H       0.478247      1.217910      3.367949
  H       1.234551      2.459862      1.900253
  O       1.330435      1.351603      2.939318
29
Coordinates from ORCA-job /home/rudenko/2025/kie/for_orca/m,m-o2n2c6h4chno2ch3_oh/orca/ts_opt/ts_opt E -1076.755372612936
  C      -2.028216      0.555671     -0.116605
  C      -0.779823      0.435915      0.478315
  C       0.188067     -0.359828     -0.122928
  C      -0.105644     -1.002204     -1.323018
  C      -1.361443     -0.843702     -1.889225
  C      -2.355460     -0.080644     -1.299120
  H      -0.551171      0.951718      1.399141
  H       0.628070     -1.619533     -1.819772
  H      -3.330152      0.021319     -1.747439
  N      -1.657885     -1.511126     -3.165674
  O      -2.788218     -1.405998     -3.618505
  O      -0.760177     -2.139291     -3.706561
  C       1.499974     -0.563722      0.583918
  H       1.529794      0.081148      1.483564
  C       1.767523     -2.013516      0.962532
  H       2.688791     -2.098906      1.533926
  H       1.831338     -2.654379      0.081992
  H       0.940292     -2.358640      1.582602
  N       2.650957     -0.003428     -0.234572
  O       3.781174     -0.292127      0.120383
  O       2.406110      0.756720     -1.158757
  O       0.991232      3.222858      1.195814
  H       1.726704      3.129625      0.585900
  N      -3.042567      1.400315      0.528195
  O      -4.204462      1.275744      0.173002
  O      -2.669472      2.167195      1.405223
  H       0.535332      1.150568      3.347358
  H       1.118923      2.445770      1.867428
  O       1.350409      1.352480      2.872886
29
Coordinates from ORCA-job /home/rudenko/2025/kie/for_orca/m,m-o2n2c6h4chno2ch3_oh/orca/ts_opt/ts_opt E -1076.755497945443
  C      -2.052435      0.538585     -0.129765
  C      -0.802448      0.432573      0.464393
  C       0.169913     -0.360639     -0.132443
  C      -0.118869     -1.010174     -1.330137
  C      -1.374945     -0.862247     -1.897180
  C      -2.375212     -0.105444     -1.309059
  H      -0.577721      0.954520      1.382951
  H       0.620088     -1.623596     -1.824304
  H      -3.350879     -0.013504     -1.757155
  N      -1.664881     -1.534684     -3.172659
  O      -2.794426     -1.435280     -3.628913
  O      -0.760937     -2.155791     -3.710728
  C       1.484345     -0.550521      0.573762
  H       1.500762      0.095805      1.479610
  C       1.764966     -1.996805      0.955840
  H       2.692830     -2.074140      1.517422
  H       1.822232     -2.642179      0.078071
  H       0.946591     -2.342932      1.587197
  N       2.628018      0.019772     -0.247668
  O       3.763637     -0.273401      0.093288
  O       2.370925      0.790696     -1.161003
  O       1.164424      3.258505      1.239328
  H       1.936139      3.145078      0.679486
  N      -3.075228      1.371838      0.516306
  O      -4.240541      1.215159      0.180718
  O      -2.704866      2.163837      1.371658
  H       0.486310      1.187922      3.355240
  H       1.210356      2.465638      1.906486
  O       1.331849      1.341410      2.919256
29
Coordinates from ORCA-job /home/rudenko/2025/kie/for_orca/m,m-o2n2c6h4chno2ch3_oh/orca/ts_opt/ts_opt E -1076.755464652463
  C      -2.048506      0.543123     -0.134219
  C      -0.798810      0.434276      0.459782
  C       0.169955     -0.365707     -0.133781
  C      -0.122107     -1.019490     -1.328381
  C      -1.378173     -0.869556     -1.894949
  C      -2.374837     -0.105574     -1.309975
  H      -0.571046      0.959735      1.375672
  H       0.614138     -1.637809     -1.820492
  H      -3.350454     -0.011900     -1.757791
  N      -1.671985     -1.547417     -3.166765
  O      -2.802143     -1.447322     -3.621502
  O      -0.770569     -2.173268     -3.703381
  C       1.485172     -0.554497      0.571427
  H       1.499184      0.090694      1.478442
  C       1.771810     -2.000508      0.949773
  H       2.699925     -2.075597      1.511391
  H       1.832160     -2.643359      0.070299
  H       0.954720     -2.352041      1.579996
  N       2.625921      0.022844     -0.248652
  O       3.762845     -0.271037      0.087347
  O       2.365534      0.799562     -1.156203
  O       1.151693      3.270853      1.258903
  H       1.942435      3.186494      0.721418
  N      -3.066809      1.385100      0.507832
  O      -4.232910      1.232629      0.174061
  O      -2.691921      2.178499      1.359906
  H       0.478662      1.170887      3.344146
  H       1.201379      2.469247      1.914638
  O       1.324735      1.331137      2.911058
29
Coordinates from ORCA-job /home/rudenko/2025/kie/for_orca/m,m-o2n2c6h4chno2ch3_oh/orca/ts_opt/ts_opt E -1076.755441359221
  C      -2.076685      0.518218     -0.118829
  C      -0.825556      0.426972      0.475864
  C       0.160629     -0.341878     -0.129974
  C      -0.114222     -0.978657     -1.337808
  C      -1.369993     -0.841289     -1.907165
  C      -2.384973     -0.111892     -1.309297
  H      -0.612945      0.940098      1.402653
  H       0.636366     -1.572678     -1.838130
  H      -3.360913     -0.029689     -1.758521
  N      -1.644077     -1.496502     -3.195014
  O      -2.769495     -1.395603     -3.660530
  O      -0.730919     -2.106234     -3.733479
  C       1.473891     -0.525855      0.579117
  H       1.488881      0.120609      1.477195
  C       1.747015     -1.969593      0.978237
  H       2.677542     -2.045601      1.535817
  H       1.794231     -2.626266      0.108559
  H       0.929689     -2.300975      1.618860
  N       2.622881      0.031562     -0.244603
  O       3.754928     -0.251781      0.111495
  O       2.372032      0.779910     -1.177276
  O       1.290033      3.186107      1.172185
  H       2.009278      2.964702      0.574857
  N      -3.117787      1.316176      0.541674
  O      -4.280804      1.126549      0.215867
  O      -2.763744      2.114159      1.397963
  H       0.474576      1.268312      3.379276
  H       1.283616      2.432799      1.882454
  O       1.336525      1.368320      2.958552
29
Coordinates from ORCA-job /home/rudenko/2025/kie/for_orca/m,m-o2n2c6h4chno2ch3_oh/orca/ts_opt/ts_opt E -1076.755460702539
  C      -2.055830      0.524544     -0.107158
  C      -0.807986      0.414932      0.490481
  C       0.174445     -0.354197     -0.120821
  C      -0.103507     -0.979156     -1.333607
  C      -1.359036     -0.830624     -1.902037
  C      -2.368200     -0.096058     -1.301438
  H      -0.591438      0.920719      1.419436
  H       0.642770     -1.575179     -1.837651
  H      -3.342433     -0.001442     -1.751873
  N      -1.638241     -1.475825     -3.193202
  O      -2.767916     -1.381065     -3.649555
  O      -0.727696     -2.073823     -3.742256
  C       1.486051     -0.549189      0.588453
  H       1.510566      0.106978      1.488757
  C       1.749982     -1.996084      0.983251
  H       2.679949     -2.080086      1.541199
  H       1.794213     -2.649196      0.110214
  H       0.929992     -2.326062      1.621624
  N       2.638941     -0.001121     -0.236407
  O       3.770759     -0.283955      0.125983
  O       2.392407      0.742391     -1.175050
  O       1.152879      3.212974      1.139778
  H       1.854154      3.012928      0.519295
  N      -3.086897      1.338785      0.549725
  O      -4.248496      1.183020      0.204939
  O      -2.726282      2.108384      1.430200
  H       0.502339      1.243193      3.369756
  H       1.203049      2.454513      1.849685
  O       1.341459      1.389697      2.918277
29
Coordinates from ORCA-job /home/rudenko/2025/kie/for_orca/m,m-o2n2c6h4chno2ch3_oh/orca/ts_opt/ts_opt E -1076.755361145806
  C      -2.069521      0.518711     -0.115329
  C      -0.820684      0.416163      0.481092
  C       0.162689     -0.354347     -0.126632
  C      -0.113698     -0.984897     -1.337076
  C      -1.369560     -0.841330     -1.905486
  C      -2.380835     -0.107812     -1.306608
  H      -0.604883      0.927633      1.407670
  H       0.634407     -1.580375     -1.839060
  H      -3.355758     -0.018272     -1.756589
  N      -1.647365     -1.491018     -3.195011
  O      -2.775756     -1.394940     -3.653960
  O      -0.736332     -2.093370     -3.740150
  C       1.476208     -0.537218      0.582471
  H       1.484755      0.113757      1.482848
  C       1.758099     -1.980462      0.978082
  H       2.695234     -2.054445      1.525382
  H       1.797653     -2.636144      0.106856
  H       0.948549     -2.315296      1.627394
  N       2.622669      0.029073     -0.238451
  O       3.756768     -0.246029      0.119105
  O       2.367759      0.776370     -1.171440
  O       1.268963      3.194944      1.156990
  H       1.999944      2.982774      0.576352
  N      -3.103566      1.328449      0.542429
  O      -4.267715      1.145274      0.221867
  O      -2.741395      2.119295      1.402853
  H       0.442181      1.268735      3.357742
  H       1.261800      2.440517      1.868928
  O       1.309390      1.374259      2.947732
29
Coordinates from ORCA-job /home/rudenko/2025/kie/for_orca/m,m-o2n2c6h4chno2ch3_oh/orca/ts_opt/ts_opt E -1076.755293185989
  C      -2.052772      0.517910     -0.090733
  C      -0.806103      0.402409      0.507708
  C       0.181263     -0.350806     -0.114892
  C      -0.091807     -0.957843     -1.337835
  C      -1.347671     -0.806523     -1.905144
  C      -2.360511     -0.085001     -1.294989
  H      -0.592612      0.896603      1.443593
  H       0.657521     -1.543330     -1.849410
  H      -3.334446      0.012822     -1.745389
  N      -1.624003     -1.434691     -3.205343
  O      -2.754276     -1.337531     -3.660062
  O      -0.711694     -2.025027     -3.761439
  C       1.490047     -0.550286      0.597995
  H       1.514860      0.110128      1.489559
  C       1.744358     -1.996951      1.002044
  H       2.678587     -2.085596      1.552395
  H       1.774605     -2.655717      0.132587
  H       0.926703     -2.315043      1.649559
  N       2.650351     -0.014589     -0.225217
  O       3.777277     -0.281640      0.158594
  O       2.413805      0.700167     -1.187525
  O       1.130848      3.173597      1.067323
  H       1.788861      2.918820      0.423404
  N      -3.086687      1.321352      0.575162
  O      -4.246643      1.163193      0.233080
  O      -2.728780      2.074038      1.471774
  H       0.491821      1.279965      3.360756
  H       1.185302      2.443569      1.804632
  O       1.331796      1.426003      2.907813
29
Coordinates from ORCA-job /home/rudenko/2025/kie/for_orca/m,m-o2n2c6h4chno2ch3_oh/orca/ts_opt/ts_opt E -1076.755107951230
  C      -2.058144      0.523191     -0.112232
  C      -0.811062      0.409423      0.484881
  C       0.169035     -0.363238     -0.125164
  C      -0.110871     -0.989687     -1.336839
  C      -1.367615     -0.840549     -1.902891
  C      -2.374071     -0.101268     -1.303211
  H      -0.591150      0.919115      1.411262
  H       0.633567     -1.588435     -1.840247
  H      -3.348817     -0.005709     -1.752531
  N      -1.651803     -1.489226     -3.191601
  O      -2.783488     -1.394902     -3.643321
  O      -0.744239     -2.092704     -3.741016
  C       1.481272     -0.549554      0.585846
  H       1.485392      0.101660      1.484247
  C       1.767737     -1.993460      0.975355
  H       2.709971     -2.068720      1.513697
  H       1.800082     -2.646123      0.101364
  H       0.964201     -2.331489      1.630566
  N       2.627290      0.023668     -0.230548
  O       3.761247     -0.241062      0.132500
  O       2.372045      0.763350     -1.168767
  O       1.220286      3.204501      1.148209
  H       1.969741      3.016049      0.587517
  N      -3.083382      1.347224      0.542061
  O      -4.248359      1.171620      0.228605
  O      -2.711951      2.129070      1.407730
  H       0.413962      1.259325      3.330396
  H       1.225357      2.447596      1.856492
  O       1.283766      1.380335      2.927639
29
Coordinates from ORCA-job /home/rudenko/2025/kie/for_orca/m,m-o2n2c6h4chno2ch3_oh/orca/ts_opt/ts_opt E -1076.754910575770
  C      -2.050659      0.511949     -0.081150
  C      -0.805160      0.389279      0.517189
  C       0.183073     -0.356910     -0.111883
  C      -0.088263     -0.951838     -1.341021
  C      -1.344727     -0.796750     -1.906423
  C      -2.358104     -0.081258     -1.289979
  H      -0.591234      0.877401      1.456088
  H       0.661682     -1.531859     -1.857585
  H      -3.331719      0.020970     -1.740050
  N      -1.621243     -1.412169     -3.212494
  O      -2.753704     -1.318139     -3.662252
  O      -0.708486     -1.991853     -3.776637
  C       1.490793     -0.555114      0.603513
  H       1.505896      0.108708      1.491563
  C       1.750398     -2.000503      1.009651
  H       2.692459     -2.087917      1.546861
  H       1.767716     -2.661785      0.141589
  H       0.941576     -2.316086      1.669601
  N       2.652473     -0.014969     -0.215469
  O       3.778743     -0.269174      0.178605
  O       2.416792      0.687710     -1.187030
  O       1.143580      3.152549      1.018860
  H       1.804097      2.871019      0.393403
  N      -3.082570      1.314432      0.589479
  O      -4.243865      1.147244      0.262269
  O      -2.719760      2.062132      1.489099
  H       0.438980      1.313361      3.335866
  H       1.178036      2.440122      1.773922
  O       1.293201      1.449446      2.904416
29
Coordinates from ORCA-job /home/rudenko/2025/kie/for_orca/m,m-o2n2c6h4chno2ch3_oh/orca/ts_opt/ts_opt E -1076.754586216314
  C      -2.056091      0.516412     -0.104191
  C      -0.810178      0.395960      0.492974
  C       0.171090     -0.369685     -0.123380
  C      -0.107419     -0.985210     -1.340766
  C      -1.365625     -0.834689     -1.903921
  C      -2.372752     -0.101540     -1.298058
  H      -0.589547      0.900702      1.421683
  H       0.637709     -1.578496     -1.849272
  H      -3.347555     -0.002866     -1.746538
  N      -1.650608     -1.472184     -3.197656
  O      -2.785954     -1.386377     -3.641529
  O      -0.742257     -2.061501     -3.756821
  C       1.481871     -0.556605      0.590639
  H       1.479035      0.098612      1.486885
  C       1.771878     -2.000244      0.979411
  H       2.720734     -2.075812      1.506109
  H       1.793040     -2.653658      0.105426
  H       0.975863     -2.337119      1.644453
  N       2.628880      0.019627     -0.223225
  O       3.762815     -0.230174      0.150564
  O       2.373206      0.743238     -1.173699
  O       1.230341      3.200102      1.115539
  H       1.986378      2.994870      0.576555
  N      -3.077476      1.344697      0.551253
  O      -4.243428      1.163965      0.251664
  O      -2.699698      2.120768      1.420432
  H       0.369384      1.290453      3.307473
  H       1.216790      2.452403      1.834966
  O       1.249573      1.404352      2.923031
29
Coordinates from ORCA-job /home/rudenko/2025/kie/for_orca/m,m-o2n2c6h4chno2ch3_oh/orca/ts_opt/ts_opt E -1076.754032466933
  C      -2.039131      0.510227     -0.072840
  C      -0.795192      0.374421      0.524365
  C       0.190568     -0.368774     -0.111381
  C      -0.083181     -0.952148     -1.345350
  C      -1.341568     -0.790976     -1.906099
  C      -2.351448     -0.076079     -1.283465
  H      -0.576644      0.857373      1.464642
  H       0.663927     -1.530839     -1.867071
  H      -3.325198      0.033348     -1.731657
  N      -1.624168     -1.396267     -3.215329
  O      -2.761078     -1.307331     -3.654774
  O      -0.714314     -1.967747     -3.789507
  C       1.495703     -0.570808      0.608403
  H       1.501097      0.098160      1.492592
  C       1.759255     -2.016156      1.012629
  H       2.707464     -2.104599      1.538682
  H       1.766341     -2.676793      0.143665
  H       0.957561     -2.332047      1.681104
  N       2.659599     -0.025881     -0.204829
  O       3.784739     -0.267313      0.199611
  O       2.426255      0.663754     -1.185954
  O       1.110353      3.162256      0.989076
  H       1.789998      2.887781      0.389684
  N      -3.061687      1.324041      0.599172
  O      -4.224546      1.155664      0.290384
  O      -2.687067      2.058780      1.506354
  H       0.383913      1.329453      3.297114
  H       1.141145      2.453981      1.747590
  O       1.247303      1.474521      2.883188
29
Coordinates from ORCA-job /home/rudenko/2025/kie/for_orca/m,m-o2n2c6h4chno2ch3_oh/orca/ts_opt/ts_opt E -1076.753739308737
  C      -2.044898      0.517103     -0.095577
  C      -0.800450      0.384663      0.500802
  C       0.177964     -0.379570     -0.121197
  C      -0.103000     -0.985198     -1.342898
  C      -1.362368     -0.827995     -1.902439
  C      -2.365905     -0.094292     -1.291358
  H      -0.575705      0.884552      1.431061
  H       0.639388     -1.577623     -1.856073
  H      -3.340715      0.011174     -1.738308
  N      -1.652814     -1.456830     -3.199119
  O      -2.791202     -1.371034     -3.635466
  O      -0.747342     -2.042599     -3.766034
  C       1.486794     -0.569933      0.596048
  H       1.475123      0.087848      1.488437
  C       1.781869     -2.013504      0.981879
  H       2.734327     -2.088511      1.502001
  H       1.798715     -2.665069      0.106300
  H       0.990580     -2.353454      1.650847
  N       2.635519      0.012455     -0.212081
  O       3.768209     -0.223381      0.173165
  O       2.381939      0.721890     -1.173338
  O       1.196589      3.196889      1.079716
  H       1.968316      2.997622      0.568889
  N      -3.058015      1.354876      0.561158
  O      -4.224760      1.173362      0.277800
  O      -2.669966      2.120219      1.437056
  H       0.315988      1.303536      3.268818
  H       1.180728      2.457047      1.806452
  O       1.205094      1.425757      2.903457
29
Coordinates from ORCA-job /home/rudenko/2025/kie/for_orca/m,m-o2n2c6h4chno2ch3_oh/orca/ts_opt/ts_opt E -1076.751224813879
  C      -2.026232      0.500374     -0.055130
  C      -0.784087      0.346387      0.538395
  C       0.200522     -0.384816     -0.111309
  C      -0.074822     -0.945012     -1.355292
  C      -1.337527     -0.777856     -1.906598
  C      -2.344933     -0.072141     -1.269908
  H      -0.560119      0.817559      1.482966
  H       0.670084     -1.515675     -1.888119
  H      -3.319983      0.045408     -1.713316
  N      -1.628357     -1.362130     -3.223161
  O      -2.772025     -1.281151     -3.646324
  O      -0.722166     -1.917161     -3.814723
  C       1.500028     -0.592833      0.618091
  H       1.483934      0.084376      1.492807
  C       1.772763     -2.037577      1.019795
  H       2.727515     -2.124504      1.533803
  H       1.771901     -2.696306      0.149013
  H       0.979506     -2.357882      1.695876
  N       2.668966     -0.037068     -0.182087
  O       3.791078     -0.257164      0.241539
  O       2.441529      0.628032     -1.180488
  O       1.107791      3.164399      0.916488
  H       1.826202      2.883714      0.384686
  N      -3.036054      1.325561      0.623326
  O      -4.200125      1.140386      0.356398
  O      -2.641835      2.039910      1.542733
  H       0.258008      1.383966      3.212336
  H       1.100231      2.471569      1.689766
  O       1.148210      1.527635      2.848437
29
Coordinates from ORCA-job /home/rudenko/2025/kie/for_orca/m,m-o2n2c6h4chno2ch3_oh/orca/ts_opt/ts_opt E -1076.753316641839
  C      -2.039301      0.518641     -0.092272
  C      -0.795442      0.380976      0.504028
  C       0.180862     -0.384930     -0.119209
  C      -0.101812     -0.987494     -1.341995
  C      -1.361545     -0.827234     -1.900168
  C      -2.363071     -0.092061     -1.287652
  H      -0.568008      0.880095      1.433998
  H       0.638929     -1.580703     -1.856568
  H      -3.337747      0.016716     -1.734250
  N      -1.654268     -1.452658     -3.197891
  O      -2.793997     -1.367516     -3.630997
  O      -0.749885     -2.036383     -3.768117
  C       1.489295     -0.577611      0.598409
  H       1.474309      0.080570      1.490184
  C       1.787715     -2.021157      0.980956
  H       2.740331     -2.095351      1.500377
  H       1.805897     -2.670468      0.103793
  H       0.997452     -2.364754      1.648811
  N       2.637136      0.009675     -0.208207
  O       3.770664     -0.221946      0.178822
  O       2.382320      0.715110     -1.172144
  O       1.178718      3.200308      1.068258
  H       1.961615      3.010796      0.572899
  N      -3.047913      1.363371      0.562695
  O      -4.215006      1.182751      0.285332
  O      -2.655131      2.124212      1.441058
  H       0.291782      1.303794      3.250167
  H       1.162044      2.460675      1.796105
  O       1.184061      1.432577      2.893579
29
Coordinates from ORCA-job /home/rudenko/2025/kie/for_orca/m,m-o2n2c6h4chno2ch3_oh/orca/ts_opt/ts_opt E -1076.754381232514
  C      -2.046852      0.538868     -0.130289
  C      -0.801374      0.414492      0.467074
  C       0.163908     -0.387677     -0.127948
  C      -0.128463     -1.031938     -1.327512
  C      -1.385759     -0.876566     -1.891235
  C      -2.378840     -0.110025     -1.303600
  H      -0.567532      0.941734      1.380350
  H       0.606072     -1.649125     -1.823225
  H      -3.353312     -0.008023     -1.752273
  N      -1.684134     -1.541677     -3.168271
  O      -2.820832     -1.452780     -3.608474
  O      -0.784060     -2.153395     -3.718810
  C       1.480230     -0.566059      0.578995
  H       1.463812      0.073927      1.486771
  C       1.807100     -2.007780      0.940280
  H       2.756963     -2.068668      1.466111
  H       1.846608     -2.645337      0.055521
  H       1.020237     -2.377811      1.597808
  N       2.606592      0.054191     -0.232177
  O       3.750275     -0.182212      0.121263
  O       2.325377      0.793216     -1.163137
  O       1.236624      3.233418      1.219053
  H       2.076715      3.140961      0.783401
  N      -3.049793      1.407901      0.500095
  O      -4.219790      1.232230      0.217493
  O      -2.653040      2.209551      1.336497
  H       0.312707      1.225799      3.272568
  H       1.212349      2.449854      1.897752
  O       1.208213      1.342931      2.925919
29
Coordinates from ORCA-job /home/rudenko/2025/kie/for_orca/m,m-o2n2c6h4chno2ch3_oh/orca/ts_opt/ts_opt E -1076.754753529104
  C      -2.053467      0.556810     -0.167591
  C      -0.805357      0.445473      0.427654
  C       0.149828     -0.387442     -0.141473
  C      -0.153273     -1.069901     -1.317332
  C      -1.410210     -0.921462     -1.883143
  C      -2.394826     -0.127212     -1.318332
  H      -0.565310      0.996694      1.325313
  H       0.573986     -1.709607     -1.794951
  H      -3.370472     -0.033458     -1.766388
  N      -1.717021     -1.625630     -3.137480
  O      -2.852809     -1.539283     -3.580183
  O      -0.822327     -2.261545     -3.670358
  C       1.471326     -0.554279      0.558813
  H       1.448861      0.069365      1.479758
  C       1.824661     -1.993693      0.900333
  H       2.767402     -2.041621      1.439641
  H       1.892289     -2.618459      0.008364
  H       1.037433     -2.390969      1.540958
  N       2.581489      0.099181     -0.247119
  O       3.732546     -0.147648      0.076489
  O       2.281194      0.877131     -1.140109
  O       1.313308      3.263067      1.352177
  H       2.202006      3.251289      1.005178
  N      -3.050818      1.445665      0.443259
  O      -4.222313      1.270466      0.161251
  O      -2.649204      2.274782      1.250911
  H       0.311614      1.165193      3.269986
  H       1.264485      2.440998      1.982417
  O       1.214981      1.266096      2.941959
29
Coordinates from ORCA-job /home/rudenko/2025/kie/for_orca/m,m-o2n2c6h4chno2ch3_oh/orca/ts_opt/ts_opt E -1076.754401555367
  C      -2.058979      0.564130     -0.197432
  C      -0.808593      0.460113      0.393297
  C       0.139401     -0.391826     -0.159349
  C      -0.173059     -1.099442     -1.317496
  C      -1.432963     -0.958756     -1.879241
  C      -2.410757     -0.146796     -1.328326
  H      -0.562330      1.028232      1.278487
  H       0.547892     -1.753834     -1.783946
  H      -3.388737     -0.059915     -1.772632
  N      -1.750526     -1.691260     -3.114408
  O      -2.888853     -1.612361     -3.551479
  O      -0.861988     -2.343009     -3.636694
  C       1.463125     -0.546952      0.540244
  H       1.423542      0.069252      1.469240
  C       1.845294     -1.981590      0.868651
  H       2.781681     -2.013965      1.420036
  H       1.940410     -2.595662     -0.028347
  H       1.059626     -2.405026      1.494330
  N       2.559962      0.138378     -0.256330
  O       3.717109     -0.109463      0.045414
  O       2.243310      0.943202     -1.119170
  O       1.414149      3.281368      1.452109
  H       2.340463      3.320747      1.235152
  N      -3.047438      1.473152      0.398346
  O      -4.221673      1.292190      0.136842
  O      -2.634092      2.320515      1.182372
  H       0.262311      1.156767      3.236554
  H       1.318438      2.436908      2.045182
  O       1.183274      1.224901      2.948592
29
Coordinates from ORCA-job /home/rudenko/2025/kie/for_orca/m,m-o2n2c6h4chno2ch3_oh/orca/ts_opt/ts_opt E -1076.753156240971
  C      -2.038293      0.550907     -0.155105
  C      -0.789966      0.426684      0.434522
  C       0.161797     -0.400830     -0.146136
  C      -0.145541     -1.067696     -1.329545
  C      -1.406645     -0.912604     -1.886175
  C      -2.387768     -0.123937     -1.308091
  H      -0.543756      0.969001      1.335429
  H       0.578170     -1.703120     -1.817066
  H      -3.365287     -0.023679     -1.750596
  N      -1.722913     -1.600478     -3.146479
  O      -2.863580     -1.514320     -3.575997
  O      -0.834170     -2.229364     -3.693157
  C       1.478060     -0.574102      0.563188
  H       1.439901      0.061609      1.476300
  C       1.832777     -2.013308      0.907626
  H       2.775227     -2.060486      1.447402
  H       1.902460     -2.638052      0.015351
  H       1.045164     -2.412351      1.546443
  N       2.595616      0.080691     -0.232186
  O       3.744178     -0.161187      0.105587
  O       2.303098      0.849322     -1.135424
  O       1.282325      3.274427      1.297933
  H       2.181724      3.274127      1.010222
  N      -3.024415      1.447061      0.464180
  O      -4.196328      1.264312      0.217100
  O      -2.606599      2.254915      1.290246
  H       0.233305      1.208194      3.212736
  H       1.220886      2.462210      1.938332
  O       1.150575      1.312055      2.913363
29
Coordinates from ORCA-job /home/rudenko/2025/kie/for_orca/m,m-o2n2c6h4chno2ch3_oh/orca/ts_opt/ts_opt E -1076.754174945113
  C      -2.053023      0.565422     -0.195183
  C      -0.802914      0.456225      0.394694
  C       0.143079     -0.396414     -0.160496
  C      -0.172093     -1.101546     -1.319334
  C      -1.432422     -0.956927     -1.879432
  C      -2.407451     -0.142856     -1.326910
  H      -0.554922      1.021930      1.280757
  H       0.546419     -1.757250     -1.787430
  H      -3.385547     -0.052649     -1.770256
  N      -1.753510     -1.688294     -3.114279
  O      -2.892448     -1.606207     -3.549435
  O      -0.867337     -2.343391     -3.637306
  C       1.466176     -0.553193      0.540229
  H       1.423715      0.065410      1.466930
  C       1.848565     -1.987439      0.869912
  H       2.783158     -2.019181      1.424363
  H       1.947459     -2.600809     -0.027151
  H       1.061184     -2.412246      1.492469
  N       2.564200      0.132246     -0.254633
  O       3.721228     -0.117350      0.047391
  O       2.249241      0.936064     -1.119042
  O       1.395396      3.290419      1.445680
  H       2.323828      3.339907      1.244483
  N      -3.038338      1.476931      0.402289
  O      -4.212322      1.299202      0.143027
  O      -2.622355      2.315900      1.194932
  H       0.247974      1.158251      3.219942
  H       1.302486      2.444624      2.037170
  O       1.170573      1.233223      2.936622
29
Coordinates from ORCA-job /home/rudenko/2025/kie/for_orca/m,m-o2n2c6h4chno2ch3_oh/orca/ts_opt/ts_opt E -1076.754582239713
  C      -2.065773      0.577369     -0.233935
  C      -0.813466      0.482327      0.354240
  C       0.126633     -0.393029     -0.176784
  C      -0.196748     -1.133191     -1.311144
  C      -1.457437     -0.998970     -1.872724
  C      -2.426314     -0.162388     -1.343905
  H      -0.563161      1.070079      1.225351
  H       0.516191     -1.807617     -1.760837
  H      -3.405488     -0.081617     -1.786689
  N      -1.785097     -1.770194     -3.081606
  O      -2.923415     -1.694109     -3.519206
  O      -0.902648     -2.447223     -3.583694
  C       1.455193     -0.533698      0.517335
  H       1.405515      0.071296      1.455568
  C       1.864981     -1.962145      0.834358
  H       2.789956     -1.978823      1.405353
  H       1.994872     -2.563330     -0.066822
  H       1.077462     -2.412693      1.438530
  N       2.534749      0.179751     -0.276003
  O       3.699083     -0.076533     -0.008744
  O       2.199015      1.016124     -1.101307
  O       1.512721      3.304026      1.586409
  H       2.458677      3.391638      1.489226
  N      -3.049066      1.503485      0.343644
  O      -4.224299      1.330738      0.074297
  O      -2.633137      2.365476      1.109049
  H       0.250846      1.125557      3.213944
  H       1.381110      2.429612      2.127657
  O       1.179045      1.168081      2.948438
29
Coordinates from ORCA-job /home/rudenko/2025/kie/for_orca/m,m-o2n2c6h4chno2ch3_oh/orca/ts_opt/ts_opt E -1076.754594358014
  C      -2.074834      0.586728     -0.272840
  C      -0.821477      0.499817      0.313986
  C       0.111297     -0.397507     -0.194114
  C      -0.222305     -1.170190     -1.303157
  C      -1.483701     -1.042997     -1.865118
  C      -2.443997     -0.182640     -1.359943
  H      -0.566020      1.110029      1.168153
  H       0.483453     -1.863605     -1.734747
  H      -3.423571     -0.106945     -1.802465
  N      -1.820277     -1.848724     -3.048664
  O      -2.957826     -1.773769     -3.488373
  O      -0.944546     -2.551369     -3.528574
  C       1.445900     -0.520189      0.492719
  H       1.388911      0.076723      1.438079
  C       1.885856     -1.940985      0.800146
  H       2.802164     -1.941023      1.385490
  H       2.045238     -2.529941     -0.104275
  H       1.100989     -2.417641      1.387955
  N       2.504083      0.219082     -0.303169
  O       3.675914     -0.036534     -0.070562
  O       2.145124      1.075618     -1.097351
  O       1.618761      3.333125      1.742159
  H       2.567198      3.454348      1.772597
  N      -3.050221      1.535839      0.280587
  O      -4.226885      1.372790      0.006747
  O      -2.627994      2.411837      1.025490
  H       0.253350      1.102720      3.195676
  H       1.449639      2.428511      2.219553
  O       1.185778      1.116893      2.944015
29
Coordinates from ORCA-job /home/rudenko/2025/kie/for_orca/m,m-o2n2c6h4chno2ch3_oh/orca/ts_opt/ts_opt E -1076.754320843839
  C      -2.077972      0.596962     -0.309223
  C      -0.824539      0.512381      0.276724
  C       0.099352     -0.406185     -0.210267
  C      -0.245891     -1.206719     -1.295041
  C      -1.509296     -1.084752     -1.854939
  C      -2.458412     -0.199629     -1.372721
  H      -0.562166      1.143147      1.113441
  H       0.451039     -1.919207     -1.709098
  H      -3.438736     -0.126337     -1.814075
  N      -1.859983     -1.923176     -3.011574
  O      -2.998042     -1.848008     -3.449660
  O      -0.995218     -2.651638     -3.472227
  C       1.439922     -0.510494      0.469327
  H       1.369715      0.078701      1.420701
  C       1.916778     -1.921615      0.763678
  H       2.828276     -1.902841      1.356531
  H       2.100729     -2.495970     -0.145510
  H       1.141376     -2.427301      1.340107
  N       2.474932      0.261434     -0.323173
  O       3.653867      0.010616     -0.122905
  O       2.091022      1.137582     -1.084568
  O       1.719826      3.347654      1.886038
  H       2.652373      3.479945      2.051212
  N      -3.041699      1.573259      0.217862
  O      -4.220208      1.418452     -0.052459
  O      -2.609212      2.462272      0.940396
  H       0.226862      1.099093      3.154312
  H       1.507268      2.423414      2.303151
  O       1.168038      1.078960      2.933960
29
Coordinates from ORCA-job /home/rudenko/2025/kie/for_orca/m,m-o2n2c6h4chno2ch3_oh/orca/ts_opt/ts_opt E -1076.754858957313
  C      -2.087862      0.584484     -0.277336
  C      -0.836531      0.501836      0.316053
  C       0.101901     -0.391926     -0.189448
  C      -0.225532     -1.166760     -1.298496
  C      -1.484677     -1.045322     -1.865787
  C      -2.449134     -0.185893     -1.366754
  H      -0.586804      1.114120      1.170422
  H       0.484364     -1.858592     -1.726216
  H      -3.427027     -0.113630     -1.813778
  N      -1.812851     -1.857054     -3.048205
  O      -2.949029     -1.789356     -3.492964
  O      -0.930589     -2.555364     -3.523986
  C       1.439656     -0.513001      0.491937
  H       1.396807      0.079828      1.441142
  C       1.877518     -1.933770      0.799634
  H       2.799855     -1.934448      1.376105
  H       2.024994     -2.526932     -0.103891
  H       1.096615     -2.404573      1.398149
  N       2.493042      0.221972     -0.313601
  O       3.665613     -0.031947     -0.085291
  O       2.129666      1.077452     -1.107373
  O       1.641796      3.330384      1.759819
  H       2.596280      3.465725      1.795069
  N      -3.070819      1.529859      0.269845
  O      -4.246983      1.374330     -0.032124
  O      -2.659334      2.416958      1.001940
  H       0.307306      1.088616      3.233605
  H       1.481829      2.422179      2.235742
  O       1.229930      1.100824      2.955788
29
Coordinates from ORCA-job /home/rudenko/2025/kie/for_orca/m,m-o2n2c6h4chno2ch3_oh/orca/ts_opt/ts_opt E -1076.754922988145
  C      -2.091064      0.590401     -0.285478
  C      -0.837302      0.517259      0.305968
  C       0.100494     -0.381369     -0.192570
  C      -0.228761     -1.167471     -1.293590
  C      -1.485920     -1.047748     -1.865100
  C      -2.450002     -0.183800     -1.373598
  H      -0.590102      1.132408      1.159265
  H       0.480371     -1.864561     -1.714323
  H      -3.427754     -0.114814     -1.821533
  N      -1.813603     -1.871200     -3.039761
  O      -2.944396     -1.793016     -3.496465
  O      -0.933251     -2.584346     -3.502275
  C       1.438588     -0.505028      0.486098
  H       1.408790      0.086118      1.439283
  C       1.864482     -1.928862      0.795839
  H       2.775795     -1.934792      1.388382
  H       2.025003     -2.520969     -0.105894
  H       1.072096     -2.396994      1.379837
  N       2.496491      0.218940     -0.321539
  O       3.666949     -0.058315     -0.105809
  O       2.141281      1.093677     -1.098957
  O       1.629365      3.346132      1.795831
  H       2.583678      3.505344      1.803052
  N      -3.082363      1.523758      0.265986
  O      -4.251503      1.381080     -0.073014
  O      -2.685597      2.403931      1.015752
  H       0.366225      1.048472      3.254955
  H       1.495198      2.426025      2.255036
  O       1.276813      1.079740      2.944624
29
Coordinates from ORCA-job /home/rudenko/2025/kie/for_orca/m,m-o2n2c6h4chno2ch3_oh/orca/ts_opt/ts_opt E -1076.754870005393
  C      -2.102202      0.580470     -0.285703
  C      -0.850205      0.509003      0.308878
  C       0.093017     -0.382649     -0.191667
  C      -0.229952     -1.165318     -1.296788
  C      -1.487104     -1.049902     -1.869403
  C      -2.456039     -0.192246     -1.376289
  H      -0.606999      1.124316      1.163088
  H       0.483634     -1.856850     -1.719091
  H      -3.433008     -0.125348     -1.826142
  N      -1.809052     -1.868931     -3.048594
  O      -2.940354     -1.796868     -3.504767
  O      -0.924981     -2.573884     -3.513850
  C       1.431338     -0.497679      0.488726
  H       1.393654      0.093255      1.441683
  C       1.867490     -1.918536      0.798869
  H       2.787611     -1.918093      1.378269
  H       2.017405     -2.513578     -0.102885
  H       1.085121     -2.387266      1.396465
  N       2.485245      0.233497     -0.318403
  O       3.657284     -0.027308     -0.094577
  O       2.123292      1.096712     -1.105314
  O       1.699353      3.323318      1.787843
  H       2.658303      3.444962      1.799153
  N      -3.095985      1.512895      0.263281
  O      -4.267781      1.357389     -0.061582
  O      -2.698484      2.402208      1.000559
  H       0.337274      1.093370      3.260408
  H       1.527649      2.415207      2.259068
  O       1.254479      1.087856      2.968767
29
Coordinates from ORCA-job /home/rudenko/2025/kie/for_orca/m,m-o2n2c6h4chno2ch3_oh/orca/ts_opt/ts_opt E -1076.754774333688
  C      -2.095193      0.595971     -0.309996
  C      -0.841720      0.524152      0.281110
  C       0.090639     -0.388828     -0.202214
  C      -0.247047     -1.195487     -1.284968
  C      -1.505965     -1.080620     -1.854820
  C      -2.462238     -0.199033     -1.380440
  H      -0.588568      1.157696      1.118847
  H       0.456187     -1.905714     -1.692966
  H      -3.439285     -0.130004     -1.829257
  N      -1.843200     -1.926227     -3.010422
  O      -2.973408     -1.847462     -3.468157
  O      -0.972349     -2.659612     -3.456031
  C       1.434432     -0.497303      0.469392
  H       1.399089      0.088378      1.429810
  C       1.888421     -1.915076      0.767554
  H       2.792373     -1.907165      1.372093
  H       2.075338     -2.492885     -0.138414
  H       1.099771     -2.408754      1.336335
  N       2.474180      0.252001     -0.335510
  O       3.649710     -0.023872     -0.149337
  O       2.100997      1.147936     -1.080315
  O       1.688363      3.359617      1.901408
  H       2.638842      3.528096      1.991303
  N      -3.075117      1.555295      0.217976
  O      -4.244478      1.435657     -0.134532
  O      -2.668465      2.437324      0.957402
  H       0.361210      1.027265      3.234979
  H       1.532959      2.422537      2.315945
  O       1.274523      1.046118      2.933224
29
Coordinates from ORCA-job /home/rudenko/2025/kie/for_orca/m,m-o2n2c6h4chno2ch3_oh/orca/ts_opt/ts_opt E -1076.754661550171
  C      -2.120678      0.574334     -0.299910
  C      -0.870315      0.510748      0.299182
  C       0.077943     -0.380378     -0.193440
  C      -0.239779     -1.172252     -1.293172
  C      -1.495748     -1.065604     -1.869972
  C      -2.468540     -0.206894     -1.386523
  H      -0.632250      1.134383      1.148739
  H       0.477750     -1.863546     -1.709085
  H      -3.443945     -0.145359     -1.840341
  N      -1.810991     -1.894524     -3.043957
  O      -2.940607     -1.828932     -3.505515
  O      -0.923444     -2.601897     -3.498956
  C       1.419054     -0.480506      0.484353
  H       1.378977      0.104180      1.438502
  C       1.871717     -1.896856      0.791444
  H       2.799643     -1.886481      1.358479
  H       2.014908     -2.492678     -0.110802
  H       1.101703     -2.370824      1.401299
  N       2.462117      0.262903     -0.325845
  O       3.637169      0.019102     -0.104103
  O       2.087453      1.118904     -1.114209
  O       1.801782      3.304675      1.840673
  H       2.766988      3.396445      1.876384
  N      -3.118232      1.509955      0.237038
  O      -4.290189      1.350491     -0.091816
  O      -2.724124      2.412725      0.956988
  H       0.336595      1.117912      3.269757
  H       1.590619      2.398412      2.298402
  O       1.254423      1.071563      2.986406
29
Coordinates from ORCA-job /home/rudenko/2025/kie/for_orca/m,m-o2n2c6h4chno2ch3_oh/orca/ts_opt/ts_opt E -1076.754507031617
  C      -2.122733      0.588926     -0.337018
  C      -0.871579      0.530138      0.260055
  C       0.067729     -0.383614     -0.209125
  C      -0.262818     -1.206781     -1.281435
  C      -1.520832     -1.106645     -1.856300
  C      -2.481802     -0.221409     -1.398697
  H      -0.627316      1.175220      1.091117
  H       0.445198     -1.919111     -1.677438
  H      -3.458406     -0.163893     -1.850768
  N      -1.851935     -1.973179     -2.998725
  O      -2.979160     -1.900495     -3.465312
  O      -0.979320     -2.717148     -3.425047
  C       1.413969     -0.467378      0.461617
  H       1.364480      0.107127      1.425855
  C       1.902440     -1.875775      0.748467
  H       2.818315     -1.849483      1.334115
  H       2.082962     -2.448844     -0.161794
  H       1.136090     -2.385515      1.333432
  N       2.433785      0.311621     -0.340304
  O       3.615587      0.061861     -0.161775
  O       2.036250      1.201770     -1.079339
  O       1.890683      3.310588      1.980001
  H       2.844556      3.411502      2.126580
  N      -3.110880      1.548583      0.175061
  O      -4.280150      1.405355     -0.168409
  O      -2.711681      2.453573      0.890534
  H       0.320288      1.098127      3.235697
  H       1.643862      2.386665      2.378688
  O       1.242417      1.028217      2.970269
29
Coordinates from ORCA-job /home/rudenko/2025/kie/for_orca/m,m-o2n2c6h4chno2ch3_oh/orca/ts_opt/ts_opt E -1076.754494658524
  C      -2.123193      0.596373     -0.367248
  C      -0.869410      0.543693      0.223102
  C       0.061910     -0.387379     -0.227329
  C      -0.280676     -1.236250     -1.275452
  C      -1.542347     -1.141817     -1.845325
  C      -2.494267     -0.238748     -1.405338
  H      -0.617946      1.207500      1.036963
  H       0.419158     -1.964235     -1.656554
  H      -3.472487     -0.184497     -1.853990
  N      -1.889128     -2.034368     -2.962275
  O      -3.012720     -1.949761     -3.434981
  O      -1.033800     -2.811585     -3.362180
  C       1.409824     -0.454102      0.442530
  H       1.339497      0.114881      1.410917
  C       1.934162     -1.852418      0.715728
  H       2.835347     -1.809248      1.322239
  H       2.154409     -2.403134     -0.199584
  H       1.171867     -2.396588      1.273524
  N       2.411296      0.359621     -0.345308
  O       3.598285      0.107319     -0.201645
  O       1.995329      1.278425     -1.039032
  O       1.993422      3.291409      2.084914
  H       2.921282      3.372167      2.332546
  N      -3.100616      1.576663      0.126190
  O      -4.268506      1.440235     -0.210826
  O      -2.692745      2.476518      0.847843
  H       0.265661      1.122047      3.179172
  H       1.689632      2.367809      2.437649
  O       1.196761      1.009471      2.953750
29
Coordinates from ORCA-job /home/rudenko/2025/kie/for_orca/m,m-o2n2c6h4chno2ch3_oh/orca/ts_opt/ts_opt E -1076.754534570040
  C      -2.106927      0.611414     -0.373912
  C      -0.848898      0.557118      0.207235
  C       0.073451     -0.385048     -0.239260
  C      -0.284514     -1.246845     -1.271379
  C      -1.551270     -1.152760     -1.830981
  C      -2.492312     -0.235535     -1.397495
  H      -0.585457      1.229606      1.010243
  H       0.405152     -1.988050     -1.645637
  H      -3.473818     -0.180755     -1.838829
  N      -1.916736     -2.064039     -2.926924
  O      -3.041028     -1.973553     -3.396733
  O      -1.076393     -2.863072     -3.313252
  C       1.422527     -0.459077      0.427094
  H       1.351059      0.104128      1.403277
  C       1.947420     -1.858309      0.690244
  H       2.828162     -1.820271      1.326905
  H       2.202716     -2.390106     -0.227101
  H       1.171746     -2.418904      1.212556
  N       2.424385      0.364977     -0.346047
  O       3.608827      0.085920     -0.233535
  O       2.015605      1.323165     -0.989687
  O       1.939983      3.314462      2.118848
  H       2.845598      3.432780      2.429539
  N      -3.073858      1.605264      0.113852
  O      -4.236268      1.504148     -0.255597
  O      -2.662747      2.486842      0.853378
  H       0.262423      1.056573      3.137298
  H       1.655016      2.374302      2.443724
  O       1.196157      0.985629      2.912176
29
Coordinates from ORCA-job /home/rudenko/2025/kie/for_orca/m,m-o2n2c6h4chno2ch3_oh/orca/ts_opt/ts_opt E -1076.754515677434
  C      -2.118707      0.609611     -0.387910
  C      -0.860538      0.564653      0.193775
  C       0.065508     -0.377553     -0.245566
  C      -0.288871     -1.248284     -1.271356
  C      -1.556105     -1.163815     -1.831237
  C      -2.500702     -0.246819     -1.405058
  H      -0.600264      1.244062      0.991868
  H       0.403603     -1.989783     -1.639981
  H      -3.482839     -0.200192     -1.846073
  N      -1.918299     -2.087222     -2.918281
  O      -3.042194     -2.003824     -3.390835
  O      -1.076226     -2.889845     -3.293495
  C       1.414078     -0.442549      0.422680
  H       1.335763      0.115415      1.401744
  C       1.948996     -1.838492      0.681960
  H       2.834977     -1.794808      1.311055
  H       2.199655     -2.369241     -0.237320
  H       1.181044     -2.403118      1.211473
  N       2.410487      0.391846     -0.346927
  O       3.596790      0.120255     -0.236779
  O       1.994881      1.349189     -0.987139
  O       2.029893      3.281490      2.154132
  H       2.931566      3.366401      2.488656
  N      -3.090665      1.601790      0.093537
  O      -4.252126      1.492751     -0.276693
  O      -2.684736      2.489362      0.828749
  H       0.245381      1.092790      3.136216
  H       1.700802      2.353757      2.471260
  O       1.178848      0.982175      2.927544
29
Coordinates from ORCA-job /home/rudenko/2025/kie/for_orca/m,m-o2n2c6h4chno2ch3_oh/orca/ts_opt/ts_opt E -1076.754375987789
  C      -2.108210      0.603684     -0.373603
  C      -0.846768      0.556087      0.199349
  C       0.077829     -0.380689     -0.251788
  C      -0.278316     -1.240273     -1.286678
  C      -1.548324     -1.150368     -1.840353
  C      -2.494111     -0.243017     -1.396824
  H      -0.583856      1.226033      1.004371
  H       0.413784     -1.976034     -1.666531
  H      -3.478591     -0.193861     -1.832147
  N      -1.914603     -2.057909     -2.938560
  O      -3.037784     -1.962150     -3.409773
  O      -1.077003     -2.860504     -3.323074
  C       1.420332     -0.452784      0.426873
  H       1.329820      0.117430      1.395907
  C       1.942915     -1.851648      0.700639
  H       2.824903     -1.811072      1.334932
  H       2.195205     -2.390494     -0.213692
  H       1.167358     -2.406953      1.227845
  N       2.431701      0.368037     -0.338617
  O       3.615571      0.088809     -0.212051
  O       2.029340      1.318250     -0.997161
  O       1.998697      3.297779      2.107587
  H       2.898478      3.373857      2.420863
  N      -3.078702      1.586761      0.127917
  O      -4.241385      1.469342     -0.217598
  O      -2.669555      2.452343      0.894710
  H       0.202747      1.124555      3.104377
  H       1.664114      2.377264      2.436257
  O       1.144417      1.017527      2.916823
29
Coordinates from ORCA-job /home/rudenko/2025/kie/for_orca/m,m-o2n2c6h4chno2ch3_oh/orca/ts_opt/ts_opt E -1076.754556658751
  C      -2.121286      0.605040     -0.386779
  C      -0.861517      0.564414      0.191227
  C       0.067093     -0.373583     -0.251127
  C      -0.285689     -1.243736     -1.277956
  C      -1.554639     -1.163067     -1.834571
  C      -2.502491     -0.251753     -1.403693
  H      -0.602026      1.242929      0.990123
  H       0.408886     -1.981523     -1.649652
  H      -3.485971     -0.208968     -1.841801
  N      -1.916048     -2.085743     -2.922060
  O      -3.039362     -2.001290     -3.395626
  O      -1.074283     -2.889012     -3.295581
  C       1.413281     -0.438198      0.421985
  H       1.328466      0.121968      1.397722
  C       1.944822     -1.834767      0.686240
  H       2.830734     -1.791410      1.315309
  H       2.194348     -2.368850     -0.231484
  H       1.175412     -2.395947      1.216973
  N       2.414596      0.393173     -0.345183
  O       3.600360      0.119988     -0.230100
  O       2.002656      1.348966     -0.989617
  O       2.060565      3.275355      2.150317
  H       2.958890      3.338463      2.490771
  N      -3.095637      1.592287      0.100000
  O      -4.255937      1.482944     -0.269509
  O      -2.692784      2.469531      0.851021
  H       0.222859      1.118880      3.120591
  H       1.705872      2.356967      2.466581
  O       1.158827      0.996942      2.925880
29
Coordinates from ORCA-job /home/rudenko/2025/kie/for_orca/m,m-o2n2c6h4chno2ch3_oh/orca/ts_opt/ts_opt E -1076.754518806256
  C      -2.160155      0.583180     -0.397838
  C      -0.900648      0.568844      0.182453
  C       0.047899     -0.349593     -0.258722
  C      -0.284370     -1.225341     -1.287277
  C      -1.553494     -1.170966     -1.846001
  C      -2.521523     -0.281109     -1.415470
  H      -0.657706      1.251993      0.982389
  H       0.426559     -1.947445     -1.658505
  H      -3.505180     -0.259650     -1.854610
  N      -1.893291     -2.101781     -2.933343
  O      -3.011346     -2.029303     -3.420826
  O      -1.039621     -2.898867     -3.292037
  C       1.390488     -0.396490      0.423473
  H       1.293383      0.161425      1.393835
  C       1.927850     -1.788355      0.700343
  H       2.824572     -1.734006      1.312764
  H       2.161080     -2.336611     -0.213043
  H       1.168287     -2.340706      1.253621
  N       2.392066      0.436385     -0.344852
  O       3.579197      0.179748     -0.212566
  O       1.974840      1.376710     -1.007472
  O       2.283955      3.183184      2.171342
  H       3.181733      3.132497      2.517656
  N      -3.156297      1.548817      0.088276
  O      -4.312907      1.419062     -0.289595
  O      -2.774580      2.431449      0.842930
  H       0.191709      1.240720      3.120555
  H       1.810800      2.317456      2.486591
  O       1.116700      1.028753      2.955931
29
Coordinates from ORCA-job /home/rudenko/2025/kie/for_orca/m,m-o2n2c6h4chno2ch3_oh/orca/ts_opt/ts_opt E -1076.754569876474
  C      -2.145575      0.590198     -0.392189
  C      -0.886399      0.564352      0.188039
  C       0.054859     -0.360478     -0.255087
  C      -0.284451     -1.232070     -1.285100
  C      -1.553272     -1.166691     -1.843513
  C      -2.513701     -0.268978     -1.411772
  H      -0.637121      1.244384      0.988795
  H       0.420797     -1.959224     -1.657764
  H      -3.497060     -0.238432     -1.850987
  N      -1.901099     -2.092778     -2.932626
  O      -3.019694     -2.012070     -3.417843
  O      -1.053431     -2.895378     -3.294923
  C       1.399126     -0.414369      0.423479
  H       1.308626      0.147259      1.396100
  C       1.932627     -1.808334      0.697947
  H       2.824393     -1.758392      1.318336
  H       2.173005     -2.352318     -0.216268
  H       1.167611     -2.362960      1.241949
  N       2.400618      0.415546     -0.346856
  O       3.587200      0.151185     -0.222510
  O       1.985589      1.361307     -1.003378
  O       2.195561      3.228050      2.161786
  H       3.096415      3.221406      2.503779
  N      -3.133721      1.563031      0.095931
  O      -4.290097      1.447254     -0.286252
  O      -2.746017      2.436452      0.858806
  H       0.207038      1.191802      3.122076
  H       1.770365      2.339600      2.477792
  O       1.137811      1.020644      2.942255
29
Coordinates from ORCA-job /home/rudenko/2025/kie/for_orca/m,m-o2n2c6h4chno2ch3_oh/orca/ts_opt/ts_opt E -1076.754596714886
  C      -2.146242      0.588224     -0.389248
  C      -0.886887      0.562471      0.190803
  C       0.055371     -0.360070     -0.254773
  C      -0.283117     -1.229841     -1.286674
  C      -1.551989     -1.164562     -1.844895
  C      -2.513269     -0.268702     -1.411153
  H      -0.638112      1.240615      0.993301
  H       0.422873     -1.955569     -1.660794
  H      -3.496723     -0.238255     -1.850225
  N      -1.899010     -2.088803     -2.935776
  O      -3.016025     -2.005238     -3.424050
  O      -1.052188     -2.892522     -3.296748
  C       1.399377     -0.415615      0.423999
  H       1.310897      0.148599      1.395132
  C       1.928599     -1.810542      0.701670
  H       2.816191     -1.762385      1.328075
  H       2.174108     -2.354828     -0.210995
  H       1.158957     -2.363848      1.240304
  N       2.403005      0.409915     -0.347480
  O       3.588738      0.139398     -0.226371
  O       1.991009      1.359194     -1.001062
  O       2.194750      3.238774      2.157416
  H       3.096363      3.230359      2.497474
  N      -3.135829      1.558061      0.101867
  O      -4.289121      1.450373     -0.291931
  O      -2.752428      2.421691      0.877848
  H       0.209945      1.187697      3.118266
  H       1.769268      2.349269      2.471802
  O       1.141487      1.026143      2.934217
29
Coordinates from ORCA-job /home/rudenko/2025/kie/for_orca/m,m-o2n2c6h4chno2ch3_oh/orca/ts_opt/ts_opt E -1076.754701462478
  C      -2.139902      0.580344     -0.369648
  C      -0.881451      0.542969      0.211718
  C       0.060844     -0.371286     -0.249071
  C      -0.277165     -1.225161     -1.294775
  C      -1.545185     -1.149605     -1.853097
  C      -2.505259     -0.257975     -1.407335
  H      -0.630403      1.208432      1.024116
  H       0.429097     -1.945238     -1.679342
  H      -3.487740     -0.218867     -1.847533
  N      -1.892817     -2.057033     -2.957779
  O      -3.002231     -1.950802     -3.459216
  O      -1.054693     -2.871724     -3.315082
  C       1.405908     -0.435494      0.427190
  H       1.331442      0.149860      1.390857
  C       1.914824     -1.834433      0.724652
  H       2.785378     -1.792897      1.375719
  H       2.180262     -2.384058     -0.179300
  H       1.125010     -2.379144      1.243077
  N       2.417369      0.363276     -0.358558
  O       3.598375      0.067773     -0.250500
  O       2.019055      1.319633     -1.010440
  O       2.121667      3.316715      2.130954
  H       3.030318      3.327837      2.449252
  N      -3.128946      1.543158      0.136708
  O      -4.264933      1.490565     -0.313644
  O      -2.763228      2.344801      0.984211
  H       0.243088      1.147984      3.113187
  H       1.734551      2.411743      2.441494
  O       1.176766      1.058626      2.892185
29
Coordinates from ORCA-job /home/rudenko/2025/kie/for_orca/m,m-o2n2c6h4chno2ch3_oh/orca/ts_opt/ts_opt E -1076.754713443087
  C      -2.137443      0.584534     -0.373045
  C      -0.880049      0.544627      0.210573
  C       0.059912     -0.374298     -0.246367
  C      -0.279940     -1.230735     -1.289401
  C      -1.547372     -1.153484     -1.848878
  C      -2.504757     -0.256791     -1.407664
  H      -0.628193      1.211819      1.021350
  H       0.424418     -1.954186     -1.671195
  H      -3.486689     -0.215976     -1.849145
  N      -1.896938     -2.063825     -2.950719
  O      -3.009919     -1.964052     -3.445380
  O      -1.056435     -2.872388     -3.314107
  C       1.406287     -0.436949      0.427369
  H       1.331565      0.142850      1.391990
  C       1.921902     -1.835267      0.715855
  H       2.800370     -1.793114      1.355860
  H       2.177275     -2.382430     -0.192508
  H       1.139995     -2.382735      1.243042
  N       2.413422      0.369785     -0.356430
  O       3.596216      0.080811     -0.247424
  O       2.009306      1.325192     -1.007075
  O       2.116111      3.312560      2.137735
  H       3.022246      3.330377      2.463028
  N      -3.123672      1.554310      0.125996
  O      -4.262444      1.494113     -0.315822
  O      -2.752732      2.369912      0.956683
  H       0.241198      1.142444      3.118118
  H       1.731496      2.405212      2.448067
  O       1.174863      1.047686      2.899492
29
Coordinates from ORCA-job /home/rudenko/2025/kie/for_orca/m,m-o2n2c6h4chno2ch3_oh/orca/ts_opt/ts_opt E -1076.754695954094
  C      -2.137524      0.589320     -0.382392
  C      -0.880099      0.551873      0.201335
  C       0.058220     -0.372212     -0.249019
  C      -0.283334     -1.235274     -1.285907
  C      -1.550623     -1.159523     -1.846181
  C      -2.506436     -0.258287     -1.411381
  H      -0.628228      1.223253      1.008739
  H       0.419408     -1.962768     -1.662728
  H      -3.488257     -0.218836     -1.853286
  N      -1.901885     -2.077642     -2.941324
  O      -3.019626     -1.988262     -3.427427
  O      -1.058376     -2.883263     -3.306797
  C       1.404544     -0.431356      0.424844
  H       1.325166      0.141456      1.394239
  C       1.929321     -1.827637      0.704999
  H       2.820196     -1.781842      1.326997
  H       2.167954     -2.375417     -0.207401
  H       1.159771     -2.376192      1.248709
  N       2.407686      0.387106     -0.354075
  O       3.592284      0.110942     -0.238905
  O       1.997511      1.336921     -1.008110
  O       2.134849      3.284637      2.150879
  H       3.038032      3.300800      2.486625
  N      -3.122818      1.563202      0.110678
  O      -4.265651      1.488734     -0.318161
  O      -2.746682      2.395326      0.924116
  H       0.230457      1.155283      3.127457
  H       1.740563      2.383195      2.464217
  O       1.163579      1.036461      2.919259
29
Coordinates from ORCA-job /home/rudenko/2025/kie/for_orca/m,m-o2n2c6h4chno2ch3_oh/orca/ts_opt/ts_opt E -1076.754708231432
  C      -2.138890      0.586942     -0.380071
  C      -0.881460      0.549978      0.203571
  C       0.058011     -0.372163     -0.248235
  C      -0.282447     -1.234099     -1.286330
  C      -1.550024     -1.159389     -1.846093
  C      -2.507079     -0.260222     -1.409706
  H      -0.629925      1.221123      1.011260
  H       0.421319     -1.959988     -1.664396
  H      -3.488827     -0.221114     -1.851736
  N      -1.900006     -2.075741     -2.942862
  O      -3.017748     -1.987237     -3.428828
  O      -1.055183     -2.877839     -3.310637
  C       1.404168     -0.431060      0.425884
  H       1.324252      0.141401      1.392887
  C       1.928267     -1.827354      0.707017
  H       2.819734     -1.781503      1.328193
  H       2.165688     -2.376352     -0.205028
  H       1.158730     -2.374762      1.251975
  N       2.407801      0.386762     -0.353332
  O       3.592650      0.109772     -0.238399
  O       1.997355      1.337713     -1.006117
  O       2.142293      3.285043      2.146508
  H       3.044302      3.295535      2.484059
  N      -3.124180      1.560845      0.112948
  O      -4.265821      1.491232     -0.319928
  O      -2.748998      2.389342      0.929250
  H       0.225693      1.158199      3.122560
  H       1.741027      2.385507      2.459602
  O       1.159300      1.039428      2.915983
29
Coordinates from ORCA-job /home/rudenko/2025/kie/for_orca/m,m-o2n2c6h4chno2ch3_oh/orca/ts_opt/ts_opt E -1076.754642343933
  C      -2.170728      0.556027     -0.370895
  C      -0.911934      0.538646      0.211488
  C       0.049052     -0.352422     -0.256925
  C      -0.270907     -1.203429     -1.310155
  C      -1.541688     -1.152964     -1.865188
  C      -2.519799     -0.284866     -1.412207
  H      -0.672698      1.204384      1.026629
  H       0.450231     -1.905870     -1.699796
  H      -3.503720     -0.263889     -1.851410
  N      -1.872180     -2.062678     -2.974214
  O      -2.985882     -1.979593     -3.471339
  O      -1.017866     -2.858794     -3.336663
  C       1.391374     -0.407122      0.426831
  H       1.312849      0.185660      1.390421
  C       1.893860     -1.803328      0.742908
  H       2.790961     -1.754828      1.356697
  H       2.113696     -2.382666     -0.154706
  H       1.118303     -2.320707      1.309218
  N       2.407317      0.380792     -0.367310
  O       3.587664      0.077107     -0.263493
  O       2.012199      1.336227     -1.020793
  O       2.297942      3.269767      2.142461
  H       3.197593      3.181122      2.482179
  N      -3.178564      1.499704      0.135577
  O      -4.288278      1.484976     -0.382039
  O      -2.856169      2.248773      1.049607
  H       0.216314      1.243122      3.112369
  H       1.805352      2.414676      2.447100
  O       1.145705      1.112173      2.903650
29
Coordinates from ORCA-job /home/rudenko/2025/kie/for_orca/m,m-o2n2c6h4chno2ch3_oh/orca/ts_opt/ts_opt E -1076.754762288508
  C      -2.152256      0.569784     -0.370108
  C      -0.895212      0.537599      0.214755
  C       0.053930     -0.369003     -0.247630
  C      -0.276480     -1.221660     -1.296701
  C      -1.544648     -1.153935     -1.855698
  C      -2.510850     -0.269252     -1.409566
  H      -0.649521      1.202651      1.029126
  H       0.435686     -1.934973     -1.683063
  H      -3.492565     -0.234887     -1.851903
  N      -1.885222     -2.061133     -2.963025
  O      -3.000127     -1.970645     -3.455249
  O      -1.035787     -2.857652     -3.332897
  C       1.399022     -0.425621      0.429526
  H       1.320933      0.158055      1.388960
  C       1.912503     -1.822082      0.729093
  H       2.809198     -1.774805      1.342813
  H       2.137032     -2.388130     -0.175813
  H       1.141658     -2.352964      1.288634
  N       2.408076      0.376255     -0.359170
  O       3.590556      0.086773     -0.249515
  O       2.004297      1.328645     -1.013624
  O       2.200399      3.292233      2.133079
  H       3.102811      3.260781      2.467342
  N      -3.145982      1.531462      0.129882
  O      -4.270370      1.497630     -0.350438
  O      -2.795208      2.315543      0.999031
  H       0.221473      1.192202      3.115209
  H       1.762434      2.409866      2.444560
  O       1.154218      1.077265      2.902392
29
Coordinates from ORCA-job /home/rudenko/2025/kie/for_orca/m,m-o2n2c6h4chno2ch3_oh/orca/ts_opt/ts_opt E -1076.754623495123
  C      -2.139763      0.594496     -0.394837
  C      -0.884271      0.557834      0.193394
  C       0.052427     -0.373193     -0.246922
  C      -0.289619     -1.244496     -1.276495
  C      -1.555497     -1.170292     -1.840277
  C      -2.509401     -0.262035     -1.416449
  H      -0.632735      1.236144      0.995354
  H       0.411617     -1.977306     -1.645700
  H      -3.489384     -0.222277     -1.862586
  N      -1.906052     -2.095989     -2.929216
  O      -3.032361     -2.029360     -3.398369
  O      -1.054072     -2.885697     -3.306240
  C       1.400300     -0.425059      0.424080
  H       1.317558      0.136683      1.398366
  C       1.940509     -1.817621      0.689396
  H       2.851106     -1.765765      1.281005
  H       2.151378     -2.366383     -0.229085
  H       1.192075     -2.368039      1.259700
  N       2.393526      0.411446     -0.352890
  O       3.582640      0.156821     -0.232020
  O       1.967986      1.352214     -1.010685
  O       2.161606      3.250186      2.173758
  H       3.063639      3.264304      2.515679
  N      -3.122457      1.579559      0.082670
  O      -4.270947      1.486751     -0.325677
  O      -2.737565      2.440109      0.860230
  H       0.226123      1.166923      3.152149
  H       1.756544      2.353454      2.491357
  O       1.155089      1.016592      2.950311
29
Coordinates from ORCA-job /home/rudenko/2025/kie/for_orca/m,m-o2n2c6h4chno2ch3_oh/orca/ts_opt/ts_opt E -1076.754750629024
  C      -2.151104      0.575085     -0.377178
  C      -0.894945      0.542344      0.209559
  C       0.052006     -0.369776     -0.246852
  C      -0.280101     -1.227470     -1.291187
  C      -1.547311     -1.158741     -1.852301
  C      -2.511159     -0.268407     -1.412582
  H      -0.648888      1.210839      1.021088
  H       0.430062     -1.945227     -1.672893
  H      -3.492074     -0.233062     -1.856705
  N      -1.889146     -2.070835     -2.955278
  O      -3.007692     -1.988759     -3.440566
  O      -1.037108     -2.863164     -3.328515
  C       1.397753     -0.423439      0.429015
  H       1.317497      0.153713      1.391576
  C       1.920098     -1.818291      0.719514
  H       2.824433     -1.768473      1.321426
  H       2.135048     -2.382035     -0.189060
  H       1.158638     -2.352773      1.288198
  N       2.401944      0.389173     -0.356878
  O       3.586626      0.112769     -0.241603
  O       1.990642      1.335425     -1.015317
  O       2.202476      3.273204      2.142750
  H       3.105421      3.247683      2.477406
  N      -3.142815      1.542562      0.116075
  O      -4.273778      1.491470     -0.346356
  O      -2.783260      2.348498      0.961203
  H       0.219319      1.194107      3.127605
  H       1.766571      2.390905      2.458400
  O       1.150850      1.062672      2.919454
29
Coordinates from ORCA-job /home/rudenko/2025/kie/for_orca/m,m-o2n2c6h4chno2ch3_oh/orca/ts_opt/ts_opt E -1076.754769869667
  C      -2.150859      0.573310     -0.373926
  C      -0.895461      0.537977      0.214472
  C       0.051738     -0.372674     -0.244193
  C      -0.279266     -1.226886     -1.291855
  C      -1.545824     -1.156151     -1.854012
  C      -2.509747     -0.266607     -1.412661
  H      -0.649653      1.203957      1.028222
  H       0.431435     -1.943258     -1.675270
  H      -3.490068     -0.229376     -1.857931
  N      -1.886676     -2.064317     -2.960550
  O      -3.004832     -1.980988     -3.446469
  O      -1.034575     -2.855331     -3.335733
  C       1.397963     -0.426869      0.430681
  H       1.320586      0.154175      1.392232
  C       1.917708     -1.822110      0.724273
  H       2.821451     -1.772946      1.327151
  H       2.132570     -2.387748     -0.183128
  H       1.154603     -2.354273      1.292946
  N       2.402393      0.381391     -0.359143
  O       3.586756      0.101870     -0.246343
  O       1.991796      1.327699     -1.018317
  O       2.191780      3.285380      2.137844
  H       3.097969      3.262141      2.463997
  N      -3.142996      1.539986      0.120465
  O      -4.270694      1.496237     -0.350207
  O      -2.787206      2.337845      0.974585
  H       0.227595      1.189110      3.132118
  H       1.763056      2.400440      2.454901
  O       1.158460      1.068016      2.915848
29
Coordinates from ORCA-job /home/rudenko/2025/kie/for_orca/m,m-o2n2c6h4chno2ch3_oh/orca/ts_opt/ts_opt E -1076.754790709210
  C      -2.147894      0.573420     -0.370246
  C      -0.893542      0.533256      0.220167
  C       0.052584     -0.377350     -0.240647
  C      -0.278914     -1.228156     -1.291086
  C      -1.544542     -1.152969     -1.854731
  C      -2.506739     -0.261865     -1.412681
  H      -0.647182      1.196008      1.036448
  H       0.430871     -1.944814     -1.675677
  H      -3.486164     -0.220748     -1.859607
  N      -1.886260     -2.057468     -2.964123
  O      -3.004393     -1.971292     -3.449753
  O      -1.034613     -2.847978     -3.342210
  C       1.399458     -0.432920      0.432727
  H       1.325164      0.150709      1.392257
  C       1.917726     -1.828529      0.727370
  H       2.821988     -1.780186      1.329551
  H       2.131138     -2.395176     -0.179771
  H       1.154281     -2.359246      1.296926
  N       2.404051      0.372756     -0.359294
  O       3.587733      0.091881     -0.247019
  O       1.994416      1.318350     -1.020026
  O       2.165685      3.300721      2.129797
  H       3.075567      3.288019      2.445285
  N      -3.138530      1.541436      0.124947
  O      -4.263456      1.506077     -0.352510
  O      -2.784050      2.331755      0.986518
  H       0.236530      1.175682      3.136833
  H       1.751832      2.409883      2.449652
  O       1.167256      1.068746      2.910903
29
Coordinates from ORCA-job /home/rudenko/2025/kie/for_orca/m,m-o2n2c6h4chno2ch3_oh/orca/ts_opt/ts_opt E -1076.754812950094
  C      -2.139753      0.577926     -0.367716
  C      -0.886556      0.529952      0.224720
  C       0.055400     -0.384823     -0.236495
  C      -0.279544     -1.233076     -1.288010
  C      -1.543993     -1.150253     -1.853241
  C      -2.501544     -0.253709     -1.412121
  H      -0.637335      1.190091      1.042410
  H       0.426795     -1.953153     -1.672527
  H      -3.479724     -0.205929     -1.861155
  N      -1.889158     -2.051266     -2.964331
  O      -3.010077     -1.966741     -3.443675
  O      -1.037968     -2.838010     -3.349633
  C       1.403471     -0.443403      0.433871
  H       1.333723      0.142919      1.393872
  C       1.920800     -1.839599      0.726905
  H       2.826427     -1.792727      1.327073
  H       2.131537     -2.406111     -0.180980
  H       1.158016     -2.369724      1.297872
  N       2.407151      0.360800     -0.361002
  O       3.590930      0.077151     -0.252829
  O       1.997172      1.308571     -1.019098
  O       2.111327      3.322769      2.123904
  H       3.025625      3.335127      2.425868
  N      -3.125946      1.551139      0.126841
  O      -4.247753      1.526801     -0.356956
  O      -2.770676      2.333836      0.994972
  H       0.252434      1.146959      3.147829
  H       1.727516      2.420378      2.447390
  O       1.181702      1.064106      2.906242
29
Coordinates from ORCA-job /home/rudenko/2025/kie/for_orca/m,m-o2n2c6h4chno2ch3_oh/orca/ts_opt/ts_opt E -1076.754816955149
  C      -2.133821      0.582513     -0.368011
  C      -0.880446      0.531539      0.223534
  C       0.058574     -0.386648     -0.236976
  C      -0.279995     -1.236009     -1.286361
  C      -1.544818     -1.150402     -1.850582
  C      -2.499022     -0.249715     -1.410749
  H      -0.628666      1.191880      1.040214
  H       0.423467     -1.959414     -1.669871
  H      -3.477461     -0.199842     -1.859013
  N      -1.894373     -2.053689     -2.958604
  O      -3.016816     -1.968688     -3.434521
  O      -1.044704     -2.841988     -3.345387
  C       1.406818     -0.447386      0.432742
  H       1.336854      0.136988      1.393346
  C       1.925124     -1.843888      0.722183
  H       2.831171     -1.797852      1.321757
  H       2.135711     -2.408290     -0.187067
  H       1.163158     -2.375894      1.292476
  N       2.410329      0.359769     -0.359166
  O       3.593766      0.075497     -0.252639
  O       2.000930      1.309994     -1.013583
  O       2.085661      3.328074      2.121982
  H       2.997695      3.353782      2.429393
  N      -3.116592      1.559465      0.126063
  O      -4.237422      1.541271     -0.360275
  O      -2.759412      2.339030      0.996434
  H       0.251083      1.131189      3.145055
  H       1.712173      2.421028      2.445624
  O       1.181035      1.057684      2.902003
29
Coordinates from ORCA-job /home/rudenko/2025/kie/for_orca/m,m-o2n2c6h4chno2ch3_oh/orca/ts_opt/ts_opt E -1076.754811526339
  C      -2.126977      0.589831     -0.372077
  C      -0.872477      0.538117      0.216898
  C       0.062366     -0.386488     -0.239784
  C      -0.281501     -1.240694     -1.283343
  C      -1.547380     -1.154114     -1.845266
  C      -2.497723     -0.247967     -1.408535
  H      -0.616752      1.202074      1.029469
  H       0.418268     -1.969103     -1.664101
  H      -3.477033     -0.197628     -1.854827
  N      -1.902252     -2.062724     -2.947043
  O      -3.028200     -1.983139     -3.415386
  O      -1.053607     -2.850443     -3.336062
  C       1.410931     -0.449343      0.429135
  H       1.339808      0.130878      1.393688
  C       1.931261     -1.846208      0.711914
  H       2.838056     -1.801294      1.310391
  H       2.141614     -2.406845     -0.199723
  H       1.170917     -2.381581      1.281217
  N       2.413050      0.363043     -0.359353
  O       3.597119      0.077014     -0.258482
  O       2.002327      1.319411     -1.004295
  O       2.062853      3.327355      2.129737
  H       2.969549      3.367524      2.451609
  N      -3.105496      1.572628      0.118836
  O      -4.225926      1.558949     -0.368441
  O      -2.745435      2.352464      0.987662
  H       0.247416      1.114383      3.143334
  H       1.697262      2.416337      2.451252
  O       1.177960      1.047564      2.901577
