!  NUMFREQ B3LYP def2-TZVP CPCM D3 
%pal nprocs 102 end
%cpcm epsilon 78.4 end 
*xyz 0 1 
C   2.2459143605291 -0.6917237124 0.81406654452318
H   2.50254840132606 -0.84852373498363 -0.22582339087263
N   0.55342164920569 -2.529330115877 1.0042583161667
O   -0.02484607553472 -1.98556669957876 0.08172826733113
O   0.19417104583317 -3.57646964058431 1.51976836297487
H   2.14044729261393 0.67535575854788 2.41545983643294
C   1.79943843668455 -1.88550135492171 1.5796894732199
H   2.53569789456775 -2.68666549413635 1.58498028077831
H   1.53876804131483 -1.65155425159928 2.61155501698224
C   2.3854420574779 0.50316305789224 1.37324543144147
H   2.75904111562136 1.35106335806038 0.81289925065465
C   5.50048822082177 -2.56960869927695 1.15738763548311
C   6.44246185263908 -1.63733253875818 1.570540535812
C   6.77181688203383 -0.59768200689665 0.7087544724618
C   6.14830492756919 -0.53064012170912 -0.52988983823877
C   5.2151924005835 -1.50665741400827 -0.85610084447416
N   4.89477484481015 -2.50712789459305 -0.03171424199315
H   5.2156592511839 -3.39154901715969 1.80435915219608
H   6.90428370476733 -1.7264123292279 2.54454542697558
H   6.37153074770736 0.26032173681673 -1.23307643031451
H   4.69933941346683 -1.48514432073477 -1.8092977385963
H   7.50099251423196 0.14854597821775 0.99788650108465
H   2.52188390269255 -4.74691949182633 -0.20733429483414
H   3.48543674478261 -3.56635808903051 -0.52324150498918
O   2.69206037306994 -4.05228296223238 -0.85890622020584
*
