31
Coordinates from ORCA-job /home/rudenko/2025/kie/for_orca/ch2chch2no2_lutidine/orca/ts_opt/ts_opt E -725.689541473977
  C      -3.435901      1.628279      0.033484
  H      -4.300451      1.635041     -0.620498
  N      -4.550385     -0.057700      1.448629
  O      -5.592279      0.051380      0.785652
  O      -4.515363     -0.716028      2.501488
  H      -1.626705      2.599838      0.545024
  C      -3.327661      0.488335      0.952856
  H      -2.831089     -0.524209      0.261261
  H      -2.632245      0.603847      1.778544
  C      -2.508274      2.579262     -0.086462
  H      -2.601979      3.362031     -0.828173
  C       1.130038     -1.542263     -0.011137
  C       2.455196     -1.144838      0.013938
  C       2.770216      0.130600     -0.493510
  C       1.736892      0.922471     -0.993425
  C       0.438831      0.455828     -0.983373
  N       0.161509     -0.756774     -0.497595
  H       0.816140     -2.507780      0.362987
  H       1.945362      1.906902     -1.389492
  H      -0.399115      1.031427     -1.350430
  C       3.508320     -2.055500      0.568439
  H       4.026320     -1.584498      1.407128
  H       4.263294     -2.281273     -0.188212
  H       3.071817     -2.991734      0.912499
  C       4.181509      0.625319     -0.494621
  H       4.248312      1.623888     -0.921889
  H       4.823441     -0.047999     -1.068052
  H       4.579977      0.649005      0.522851
  H      -0.927569     -1.113264     -0.486124
  O      -2.255427     -1.494668     -0.400752
  H      -2.652731     -1.474922     -1.281036
31
Coordinates from ORCA-job /home/rudenko/2025/kie/for_orca/ch2chch2no2_lutidine/orca/ts_opt/ts_opt E -725.689516248969
  C      -3.325162      1.622998      0.058039
  H      -4.129383      1.681517     -0.666529
  N      -4.636648     -0.025166      1.343506
  O      -5.611275      0.143169      0.596006
  O      -4.723658     -0.697976      2.384134
  H      -1.521050      2.496287      0.737377
  C      -3.351296      0.467021      0.963268
  H      -2.845980     -0.559422      0.298920
  H      -2.725099      0.537050      1.847388
  C      -2.345597      2.528040      0.033481
  H      -2.337631      3.324240     -0.699765
  C       1.127688     -1.536879      0.014197
  C       2.447809     -1.122246      0.014325
  C       2.740437      0.144909     -0.526196
  C       1.691274      0.911649     -1.032272
  C       0.399577      0.428876     -0.996252
  N       0.143528     -0.775371     -0.479002
  H       0.830656     -2.497279      0.414347
  H       1.882415      1.889126     -1.453507
  H      -0.449869      0.985013     -1.366856
  C       3.519001     -2.006411      0.577058
  H       4.040661     -1.509552      1.398379
  H       4.267925     -2.240152     -0.183181
  H       3.098669     -2.939840      0.947834
  C       4.145090      0.657381     -0.555279
  H       4.194048      1.646488     -1.006313
  H       4.789131     -0.020898     -1.120442
  H       4.554821      0.709846      0.456630
  H      -0.940590     -1.145396     -0.446658
  O      -2.262342     -1.542029     -0.337823
  H      -2.667148     -1.554992     -1.214815
31
Coordinates from ORCA-job /home/rudenko/2025/kie/for_orca/ch2chch2no2_lutidine/orca/ts_opt/ts_opt E -725.689458412881
  C      -3.269287      1.632157      0.158446
  H      -4.023300      1.751560     -0.611342
  N      -4.693726     -0.052423      1.260797
  O      -5.620984      0.194550      0.475864
  O      -4.858613     -0.780589      2.253217
  H      -1.504468      2.427132      1.012098
  C      -3.376332      0.424728      0.987304
  H      -2.854021     -0.578834      0.296183
  H      -2.805994      0.426690      1.910932
  C      -2.278745      2.519405      0.258448
  H      -2.209224      3.359297     -0.420818
  C       1.116789     -1.499522      0.029302
  C       2.437757     -1.088135      0.025025
  C       2.744559      0.135415     -0.600984
  C       1.707997      0.862335     -1.185687
  C       0.414133      0.385635     -1.139484
  N       0.143907     -0.775003     -0.536832
  H       0.808980     -2.425939      0.495909
  H       1.910058      1.805752     -1.674093
  H      -0.425906      0.914189     -1.565608
  C       3.494507     -1.928235      0.675762
  H       4.000710     -1.370779      1.467317
  H       4.258215     -2.220792     -0.048574
  H       3.063632     -2.829884      1.108107
  C       4.150298      0.645077     -0.634126
  H       4.211146      1.598761     -1.154603
  H       4.806844     -0.072161     -1.132866
  H       4.535891      0.771189      0.380781
  H      -0.941894     -1.140312     -0.489756
  O      -2.262813     -1.543760     -0.364728
  H      -2.680117     -1.547505     -1.235992
31
Coordinates from ORCA-job /home/rudenko/2025/kie/for_orca/ch2chch2no2_lutidine/orca/ts_opt/ts_opt E -725.689473613327
  C      -3.219393      1.621792      0.155258
  H      -3.953275      1.757526     -0.631125
  N      -4.710084     -0.023303      1.230016
  O      -5.606816      0.224945      0.410845
  O      -4.912264     -0.756489      2.211956
  H      -1.446377      2.367145      1.036952
  C      -3.375370      0.420949      0.985856
  H      -2.859613     -0.592145      0.309994
  H      -2.826357      0.412218      1.922392
  C      -2.204645      2.479503      0.269567
  H      -2.096902      3.312638     -0.412933
  C       1.109922     -1.497912      0.041877
  C       2.428370     -1.078318      0.028911
  C       2.723342      0.147674     -0.598360
  C       1.678002      0.869627     -1.173351
  C       0.387742      0.384327     -1.119871
  N       0.129191     -0.779870     -0.519048
  H       0.811310     -2.428014      0.507188
  H       1.870866      1.814528     -1.662588
  H      -0.458550      0.908439     -1.540263
  C       3.495843     -1.914771      0.666938
  H       4.006854     -1.357137      1.455230
  H       4.253958     -2.201007     -0.065765
  H       3.074214     -2.820176      1.100575
  C       4.126380      0.663670     -0.645774
  H       4.177527      1.618054     -1.166050
  H       4.780961     -0.050194     -1.152026
  H       4.521911      0.790740      0.365133
  H      -0.952312     -1.152560     -0.467791
  O      -2.268096     -1.563198     -0.336527
  H      -2.686338     -1.578678     -1.207217
31
Coordinates from ORCA-job /home/rudenko/2025/kie/for_orca/ch2chch2no2_lutidine/orca/ts_opt/ts_opt E -725.689520925237
  C      -3.270112      1.623823      0.115322
  H      -4.027434      1.725821     -0.653706
  N      -4.695364     -0.029506      1.263751
  O      -5.620792      0.191246      0.468841
  O      -4.861354     -0.728228      2.277195
  H      -1.491070      2.427576      0.931383
  C      -3.377647      0.439461      0.976774
  H      -2.856128     -0.578296      0.310841
  H      -2.805663      0.464939      1.899182
  C      -2.271470      2.505198      0.182179
  H      -2.200398      3.324490     -0.521593
  C       1.122964     -1.512504      0.033606
  C       2.442671     -1.096873      0.022443
  C       2.737011      0.145563     -0.571839
  C       1.689746      0.887253     -1.117503
  C       0.398272      0.404774     -1.067744
  N       0.140386     -0.775346     -0.498511
  H       0.824802     -2.454662      0.474269
  H       1.882086      1.845220     -1.580866
  H      -0.449352      0.943167     -1.466599
  C       3.512101     -1.954709      0.627908
  H       4.030893     -1.421692      1.428079
  H       4.263701     -2.221959     -0.118543
  H       3.090701     -2.870932      1.038398
  C       4.141458      0.657933     -0.615862
  H       4.191886      1.626646     -1.109017
  H       4.789255     -0.043372     -1.147697
  H       4.545679      0.754638      0.394984
  H      -0.942533     -1.146339     -0.451228
  O      -2.260513     -1.554239     -0.325802
  H      -2.673781     -1.579092     -1.198646
31
Coordinates from ORCA-job /home/rudenko/2025/kie/for_orca/ch2chch2no2_lutidine/orca/ts_opt/ts_opt E -725.689528961693
  C      -3.278921      1.624737      0.111817
  H      -4.030650      1.723181     -0.663141
  N      -4.710691     -0.028550      1.251093
  O      -5.627462      0.184458      0.444098
  O      -4.886348     -0.721939      2.266619
  H      -1.507400      2.434053      0.938853
  C      -3.391301      0.443031      0.976348
  H      -2.859464     -0.575567      0.318941
  H      -2.828972      0.473527      1.904543
  C      -2.282260      2.507953      0.183547
  H      -2.207468      3.325429     -0.521957
  C       1.129308     -1.511104      0.039265
  C       2.449793     -1.098178      0.021715
  C       2.743497      0.144757     -0.571879
  C       1.694693      0.889994     -1.109628
  C       0.402495      0.410120     -1.053750
  N       0.145278     -0.770774     -0.485844
  H       0.831708     -2.453907      0.478925
  H       1.886431      1.848484     -1.572171
  H      -0.445995      0.950985     -1.447159
  C       3.521043     -1.959716      0.618688
  H       4.046686     -1.429522      1.416267
  H       4.266815     -2.227489     -0.133391
  H       3.100133     -2.875644      1.030333
  C       4.148935      0.653652     -0.623946
  H       4.198547      1.623524     -1.114898
  H       4.791242     -0.047879     -1.162093
  H       4.560302      0.746611      0.384359
  H      -0.937785     -1.141378     -0.435680
  O      -2.255214     -1.552726     -0.308391
  H      -2.666974     -1.590122     -1.181483
31
Coordinates from ORCA-job /home/rudenko/2025/kie/for_orca/ch2chch2no2_lutidine/orca/ts_opt/ts_opt E -725.689531169909
  C      -3.350195      1.633285      0.089385
  H      -4.057223      1.699264     -0.729610
  N      -4.809654     -0.042895      1.155541
  O      -5.661184      0.104496      0.266435
  O      -5.044076     -0.713287      2.174554
  H      -1.651294      2.503183      1.004410
  C      -3.488439      0.466899      0.971306
  H      -2.876996     -0.545735      0.378390
  H      -2.999259      0.536138      1.937956
  C      -2.381051      2.542507      0.202904
  H      -2.285630      3.349922     -0.511651
  C       1.171790     -1.493920      0.083436
  C       2.498759     -1.108369      0.015308
  C       2.794415      0.133658     -0.579398
  C       1.740179      0.907248     -1.063706
  C       0.441244      0.454159     -0.958612
  N       0.182639     -0.727463     -0.392654
  H       0.872724     -2.436052      0.523482
  H       1.932710      1.866281     -1.524813
  H      -0.410682      1.016188     -1.313435
  C       3.575707     -1.997740      0.558679
  H       4.151339     -1.484463      1.332348
  H       4.278163     -2.279281     -0.229354
  H       3.152957     -2.905603      0.985988
  C       4.207534      0.610866     -0.689767
  H       4.257228      1.586768     -1.168621
  H       4.806507     -0.096863     -1.268387
  H       4.668298      0.678206      0.298885
  H      -0.900091     -1.089126     -0.320246
  O      -2.209604     -1.521361     -0.178676
  H      -2.606813     -1.646908     -1.050079
31
Coordinates from ORCA-job /home/rudenko/2025/kie/for_orca/ch2chch2no2_lutidine/orca/ts_opt/ts_opt E -725.689466779329
  C      -3.440060      1.635108      0.031093
  H      -4.118271      1.640426     -0.814419
  N      -4.875249     -0.059555      1.099057
  O      -5.680659      0.002325      0.158292
  O      -5.132392     -0.697143      2.133484
  H      -1.809768      2.607863      0.968549
  C      -3.570716      0.503220      0.958041
  H      -2.888025     -0.506644      0.438845
  H      -3.133957      0.636512      1.942800
  C      -2.509614      2.584732      0.140161
  H      -2.418399      3.365541     -0.603897
  C       1.214380     -1.488980      0.113880
  C       2.545791     -1.131130     -0.000969
  C       2.844612      0.124671     -0.564322
  C       1.788855      0.939053     -0.972564
  C       0.485190      0.511757     -0.824589
  N       0.223742     -0.683371     -0.288605
  H       0.912423     -2.439327      0.533782
  H       1.983478      1.910148     -1.406783
  H      -0.368182      1.105340     -1.120573
  C       3.623962     -2.062319      0.463872
  H       4.248308     -1.586599      1.223487
  H       4.281012     -2.336688     -0.364943
  H       3.198833     -2.972279      0.884238
  C       4.262614      0.573522     -0.720764
  H       4.314740      1.567153     -1.161361
  H       4.816132     -0.123038     -1.355604
  H       4.769963      0.588251      0.246922
  H      -0.860688     -1.034234     -0.196220
  O      -2.165102     -1.480756     -0.038988
  H      -2.542955     -1.693564     -0.901904
31
Coordinates from ORCA-job /home/rudenko/2025/kie/for_orca/ch2chch2no2_lutidine/orca/ts_opt/ts_opt E -725.689534808838
  C      -3.399485      1.630191      0.039439
  H      -4.099177      1.652954     -0.788179
  N      -4.835074     -0.042371      1.143701
  O      -5.678278      0.060093      0.240444
  O      -5.068348     -0.685066      2.180698
  H      -1.726060      2.564820      0.937862
  C      -3.524658      0.493670      0.961137
  H      -2.880912     -0.526774      0.412276
  H      -3.051908      0.608939      1.931498
  C      -2.448710      2.561513      0.129019
  H      -2.361715      3.344555     -0.613182
  C       1.195274     -1.501968      0.088904
  C       2.523945     -1.126914     -0.000552
  C       2.817110      0.132037     -0.559788
  C       1.759086      0.931080     -0.991952
  C       0.458546      0.486956     -0.868658
  N       0.202464     -0.710410     -0.335142
  H       0.897440     -2.454350      0.507168
  H       1.949651      1.903933     -1.423985
  H      -0.396860      1.069342     -1.180527
  C       3.604307     -2.043017      0.488687
  H       4.203434     -1.558477      1.262947
  H       4.284830     -2.307794     -0.324084
  H       3.182409     -2.959040      0.899059
  C       4.231688      0.600923     -0.685993
  H       4.279436      1.593532     -1.129377
  H       4.810034     -0.089954     -1.304651
  H       4.716059      0.626975      0.293232
  H      -0.880706     -1.068432     -0.250159
  O      -2.187742     -1.506334     -0.096410
  H      -2.576081     -1.680613     -0.963434
31
Coordinates from ORCA-job /home/rudenko/2025/kie/for_orca/ch2chch2no2_lutidine/orca/ts_opt/ts_opt E -725.689543859376
  C      -3.384161      1.632645      0.051480
  H      -4.094924      1.663617     -0.766423
  N      -4.808466     -0.037765      1.171263
  O      -5.671580      0.084128      0.289346
  O      -5.017925     -0.705996      2.197265
  H      -1.701576      2.559958      0.939411
  C      -3.498295      0.488597      0.964543
  H      -2.874794     -0.535850      0.392177
  H      -3.002561      0.590228      1.924956
  C      -2.432858      2.563693      0.138363
  H      -2.354792      3.353632     -0.597458
  C       1.185024     -1.506975      0.077378
  C       2.512662     -1.124439      0.003430
  C       2.805810      0.131963     -0.561324
  C       1.749161      0.920972     -1.014724
  C       0.449843      0.469792     -0.906128
  N       0.193514     -0.724691     -0.366446
  H       0.887226     -2.458230      0.498222
  H       1.940128      1.890949     -1.452981
  H      -0.404626      1.043621     -1.235126
  C       3.591419     -2.030750      0.514033
  H       4.174267     -1.537831      1.295484
  H       4.287156     -2.295048     -0.285868
  H       3.169176     -2.947502      0.922382
  C       4.219109      0.608727     -0.671741
  H       4.267058      1.597154     -1.124363
  H       4.811227     -0.084538     -1.274421
  H       4.688382      0.647885      0.314406
  H      -0.890169     -1.085020     -0.287755
  O      -2.201125     -1.515646     -0.139035
  H      -2.593311     -1.657278     -1.010346
31
Coordinates from ORCA-job /home/rudenko/2025/kie/for_orca/ch2chch2no2_lutidine/orca/ts_opt/ts_opt E -725.689556318711
  C      -3.408881      1.629297      0.025052
  H      -4.121792      1.638967     -0.791483
  N      -4.813871     -0.038154      1.174190
  O      -5.679920      0.061740      0.292339
  O      -5.017565     -0.686087      2.214310
  H      -1.731555      2.586905      0.890697
  C      -3.510196      0.500528      0.958511
  H      -2.874686     -0.526404      0.404013
  H      -3.015772      0.624698      1.916916
  C      -2.465410      2.569996      0.092197
  H      -2.396338      3.347098     -0.658069
  C       1.194056     -1.511467      0.077683
  C       2.522500     -1.133428     -0.003534
  C       2.815340      0.131948     -0.548054
  C       1.757540      0.933791     -0.975617
  C       0.457355      0.486457     -0.861192
  N       0.201463     -0.716719     -0.340789
  H       0.896356     -2.468687      0.484835
  H       1.948177      1.911183     -1.397233
  H      -0.398149      1.070366     -1.169718
  C       3.602388     -2.053173      0.479829
  H       4.196093     -1.576193      1.262974
  H       4.288044     -2.307076     -0.332060
  H       3.180247     -2.974743      0.877287
  C       4.229498      0.604891     -0.663588
  H       4.277138      1.601865     -1.097070
  H       4.812229     -0.078785     -1.286056
  H       4.709131      0.622429      0.318182
  H      -0.881897     -1.075053     -0.259075
  O      -2.191692     -1.507282     -0.107924
  H      -2.579830     -1.668909     -0.977554
31
Coordinates from ORCA-job /home/rudenko/2025/kie/for_orca/ch2chch2no2_lutidine/orca/ts_opt/ts_opt E -725.689526363135
  C      -3.501530      1.619778     -0.063637
  H      -4.258451      1.552997     -0.836705
  N      -4.770491     -0.024074      1.261183
  O      -5.690595     -0.004086      0.429713
  O      -4.878757     -0.643830      2.332579
  H      -1.825205      2.694693      0.652148
  C      -3.505234      0.547277      0.937941
  H      -2.861237     -0.497275      0.405089
  H      -2.959134      0.743484      1.855323
  C      -2.597527      2.600367     -0.103392
  H      -2.602589      3.334046     -0.899162
  C       1.211646     -1.538728      0.052118
  C       2.542262     -1.167253     -0.024493
  C       2.838681      0.129258     -0.487663
  C       1.782344      0.967066     -0.844152
  C       0.479860      0.524732     -0.738020
  N       0.220642     -0.708221     -0.294304
  H       0.910939     -2.518183      0.399755
  H       1.976136      1.968723     -1.202617
  H      -0.375209      1.134767     -0.993059
  C       3.619749     -2.125646      0.382943
  H       4.227433     -1.704907      1.187370
  H       4.292954     -2.332511     -0.452327
  H       3.193980     -3.067186      0.725914
  C       4.255204      0.597581     -0.592243
  H       4.305493      1.621216     -0.957979
  H       4.822779     -0.047045     -1.268004
  H       4.748811      0.544532      0.381301
  H      -0.864214     -1.060786     -0.219528
  O      -2.181032     -1.482346     -0.077089
  H      -2.557709     -1.658441     -0.949005
31
Coordinates from ORCA-job /home/rudenko/2025/kie/for_orca/ch2chch2no2_lutidine/orca/ts_opt/ts_opt E -725.689573072936
  C      -3.426925      1.624098     -0.006275
  H      -4.139754      1.608491     -0.822767
  N      -4.812545     -0.033102      1.180179
  O      -5.688056      0.055651      0.306105
  O      -5.006667     -0.664901      2.232301
  H      -1.759544      2.617108      0.838282
  C      -3.515723      0.514158      0.950153
  H      -2.871273     -0.522365      0.413293
  H      -3.018020      0.660895      1.903710
  C      -2.493104      2.575835      0.040387
  H      -2.431769      3.337173     -0.726513
  C       1.201816     -1.519696      0.076661
  C       2.530226     -1.142702     -0.009858
  C       2.820388      0.133283     -0.530673
  C       1.760181      0.946424     -0.930032
  C       0.460239      0.499536     -0.811907
  N       0.207066     -0.714259     -0.315306
  H       0.905938     -2.484715      0.466329
  H       1.948857      1.931971     -1.333086
  H      -0.397254      1.091476     -1.099213
  C       3.612503     -2.075018      0.443120
  H       4.214074     -1.616422      1.231217
  H       4.290457     -2.312515     -0.380121
  H       3.191909     -3.004209      0.824160
  C       4.234379      0.605158     -0.652373
  H       4.279733      1.610747     -1.065750
  H       4.808289     -0.066971     -1.295289
  H       4.724946      0.601226      0.324098
  H      -0.875241     -1.071919     -0.230458
  O      -2.186000     -1.504118     -0.075661
  H      -2.569127     -1.680320     -0.944715
31
Coordinates from ORCA-job /home/rudenko/2025/kie/for_orca/ch2chch2no2_lutidine/orca/ts_opt/ts_opt E -725.689608860313
  C      -3.415736      1.623388     -0.005695
  H      -4.153046      1.608651     -0.800198
  N      -4.763078     -0.027114      1.232797
  O      -5.677601      0.079590      0.401306
  O      -4.913928     -0.671400      2.284782
  H      -1.725433      2.616897      0.790524
  C      -3.473744      0.511459      0.950126
  H      -2.859199     -0.532593      0.383442
  H      -2.933973      0.649899      1.881795
  C      -2.482013      2.576248      0.014403
  H      -2.443770      3.338422     -0.753176
  C       1.188072     -1.531291      0.056734
  C       2.514947     -1.144288     -0.007570
  C       2.803904      0.134891     -0.520919
  C       1.744391      0.940847     -0.936445
  C       0.446170      0.484098     -0.840551
  N       0.194007     -0.732345     -0.350036
  H       0.893164     -2.499408      0.439363
  H       1.932507      1.928382     -1.334867
  H      -0.411102      1.069749     -1.141102
  C       3.596568     -2.069912      0.460425
  H       4.178937     -1.610495      1.262465
  H       4.292224     -2.297035     -0.350784
  H       3.176779     -3.004692      0.828428
  C       4.215988      0.618205     -0.617222
  H       4.260662      1.623797     -1.030623
  H       4.807375     -0.049751     -1.248447
  H       4.688248      0.619328      0.368329
  H      -0.887532     -1.092572     -0.276841
  O      -2.203583     -1.513861     -0.132593
  H      -2.590204     -1.647095     -1.007850
31
Coordinates from ORCA-job /home/rudenko/2025/kie/for_orca/ch2chch2no2_lutidine/orca/ts_opt/ts_opt E -725.689613973013
  C      -3.361694      1.630198      0.055874
  H      -4.125393      1.661154     -0.712886
  N      -4.694304     -0.035966      1.288755
  O      -5.643227      0.121352      0.504593
  O      -4.806678     -0.735741      2.310169
  H      -1.628509      2.561345      0.834084
  C      -3.406739      0.480422      0.965641
  H      -2.845555     -0.560070      0.323404
  H      -2.817807      0.561706      1.873858
  C      -2.410858      2.565840      0.082939
  H      -2.383843      3.358091     -0.654085
  C       1.152041     -1.528342      0.032127
  C       2.475973     -1.127101      0.006729
  C       2.771394      0.134781     -0.544105
  C       1.721075      0.909992     -1.034813
  C       0.425248      0.440951     -0.973592
  N       0.166677     -0.758238     -0.445482
  H       0.852547     -2.484275      0.440914
  H       1.914496      1.883854     -1.463255
  H      -0.425552      1.003727     -1.330297
  C       3.547624     -2.018798      0.556307
  H       4.086322     -1.522284      1.366827
  H       4.282694     -2.263830     -0.213790
  H       3.124239     -2.946201      0.938565
  C       4.180236      0.633823     -0.597454
  H       4.231190      1.621440     -1.051432
  H       4.808627     -0.051790     -1.171236
  H       4.606399      0.684242      0.407749
  H      -0.915132     -1.120349     -0.391265
  O      -2.241607     -1.526812     -0.262833
  H      -2.639885     -1.573120     -1.142011
31
Coordinates from ORCA-job /home/rudenko/2025/kie/for_orca/ch2chch2no2_lutidine/orca/ts_opt/ts_opt E -725.689642479278
  C      -3.378993      1.627894      0.037745
  H      -4.111040      1.648510     -0.761503
  N      -4.762814     -0.031323      1.222959
  O      -5.667987      0.104059      0.385135
  O      -4.929200     -0.704847      2.254351
  H      -1.675651      2.567357      0.870911
  C      -3.463276      0.491471      0.961893
  H      -2.860116     -0.549773      0.366982
  H      -2.925940      0.593027      1.899608
  C      -2.428093      2.562425      0.089775
  H      -2.370973      3.344717     -0.656089
  C       1.174539     -1.520561      0.057032
  C       2.500518     -1.129524      0.000657
  C       2.791740      0.135177     -0.546232
  C       1.735122      0.923488     -1.001141
  C       0.437483      0.464007     -0.910374
  N       0.183190     -0.738482     -0.387579
  H       0.878006     -2.477948      0.464579
  H       1.924898      1.899935     -1.425287
  H      -0.417625      1.037164     -1.239381
  C       3.579086     -2.034959      0.513063
  H       4.146674     -1.548873      1.309964
  H       4.288336     -2.282278     -0.280270
  H       3.158216     -2.960668      0.902164
  C       4.202991      0.622380     -0.634639
  H       4.249794      1.615258     -1.077489
  H       4.807504     -0.061354     -1.235802
  H       4.659311      0.655683      0.357859
  H      -0.897808     -1.099615     -0.316524
  O      -2.217339     -1.521664     -0.173297
  H      -2.610553     -1.630682     -1.049068
31
Coordinates from ORCA-job /home/rudenko/2025/kie/for_orca/ch2chch2no2_lutidine/orca/ts_opt/ts_opt E -725.689699499313
  C      -3.405705      1.626005      0.016166
  H      -4.125152      1.626031     -0.794715
  N      -4.789088     -0.034558      1.198234
  O      -5.680180      0.079694      0.341925
  O      -4.969715     -0.690414      2.238951
  H      -1.726377      2.597762      0.861503
  C      -3.493047      0.503650      0.956591
  H      -2.861949     -0.541601      0.387804
  H      -2.975453      0.626262      1.902857
  C      -2.466071      2.572047      0.068638
  H      -2.406000      3.343531     -0.688149
  C       1.189114     -1.518656      0.069014
  C       2.516664     -1.136003     -0.003949
  C       2.807921      0.133620     -0.539449
  C       1.749650      0.935178     -0.966498
  C       0.450435      0.483465     -0.860687
  N       0.196335     -0.724113     -0.349572
  H       0.892369     -2.479391      0.468406
  H       1.939370      1.915521     -1.381546
  H      -0.405818      1.066379     -1.168900
  C       3.596946     -2.055777      0.478375
  H       4.182228     -1.583707      1.270828
  H       4.290171     -2.298875     -0.330335
  H       3.175777     -2.982921      0.863717
  C       4.221057      0.611386     -0.646664
  H       4.267584      1.609939     -1.076597
  H       4.809118     -0.068471     -1.268249
  H       4.695563      0.627268      0.337643
  H      -0.883428     -1.081754     -0.270481
  O      -2.202524     -1.509856     -0.120591
  H      -2.589796     -1.651643     -0.994266
31
Coordinates from ORCA-job /home/rudenko/2025/kie/for_orca/ch2chch2no2_lutidine/orca/ts_opt/ts_opt E -725.689936468198
  C      -3.492907      1.611466     -0.080292
  H      -4.245655      1.530463     -0.856113
  N      -4.752712     -0.019859      1.267005
  O      -5.691151      0.018568      0.454349
  O      -4.856920     -0.625442      2.348981
  H      -1.820450      2.701166      0.623546
  C      -3.495313      0.552283      0.932819
  H      -2.845267     -0.519475      0.396014
  H      -2.936491      0.750027      1.842100
  C      -2.590708      2.594007     -0.132533
  H      -2.594175      3.314803     -0.939985
  C       1.208567     -1.544321      0.049756
  C       2.537918     -1.168755     -0.025284
  C       2.830219      0.133592     -0.475004
  C       1.771242      0.973251     -0.819312
  C       0.470171      0.526736     -0.716405
  N       0.215557     -0.712568     -0.287889
  H       0.910469     -2.528351      0.386382
  H       1.962041      1.979158     -1.167143
  H      -0.387271      1.137236     -0.962542
  C       3.618099     -2.130348      0.367146
  H       4.223053     -1.721841      1.179867
  H       4.293284     -2.320584     -0.470434
  H       3.194913     -3.079092      0.693167
  C       4.245272      0.605691     -0.580702
  H       4.292171      1.632016     -0.939270
  H       4.812057     -0.033076     -1.262680
  H       4.741990      0.546958      0.390915
  H      -0.862472     -1.064115     -0.211509
  O      -2.190344     -1.485158     -0.065334
  H      -2.565188     -1.654435     -0.939616
31
Coordinates from ORCA-job /home/rudenko/2025/kie/for_orca/ch2chch2no2_lutidine/orca/ts_opt/ts_opt E -725.689948750833
  C      -3.517252      1.607541     -0.105003
  H      -4.328707      1.503210     -0.816400
  N      -4.639460     -0.003061      1.382068
  O      -5.655296      0.031601      0.667943
  O      -4.638120     -0.590858      2.479248
  H      -1.810592      2.732963      0.443071
  C      -3.422086      0.566046      0.921207
  H      -2.821878     -0.519673      0.343717
  H      -2.779293      0.778117      1.769752
  C      -2.636291      2.600442     -0.247658
  H      -2.714325      3.305177     -1.065486
  C       1.194214     -1.571905      0.003601
  C       2.521605     -1.183449     -0.029156
  C       2.812473      0.134233     -0.432658
  C       1.754453      0.974621     -0.778339
  C       0.455570      0.514503     -0.719642
  N       0.202228     -0.738755     -0.333357
  H       0.897154     -2.567681      0.304739
  H       1.944642      1.991677     -1.092398
  H      -0.401538      1.124375     -0.968493
  C       3.600611     -2.148619      0.357909
  H       4.179558     -1.764306      1.200927
  H       4.299835     -2.302815     -0.467129
  H       3.178099     -3.112057      0.638653
  C       4.224993      0.621907     -0.489614
  H       4.270849      1.657462     -0.820711
  H       4.815940      0.005939     -1.171974
  H       4.696746      0.543560      0.493107
  H      -0.875776     -1.092808     -0.280093
  O      -2.212451     -1.490601     -0.154259
  H      -2.595907     -1.606786     -1.033573
31
Coordinates from ORCA-job /home/rudenko/2025/kie/for_orca/ch2chch2no2_lutidine/orca/ts_opt/ts_opt E -725.689848747871
  C      -3.450341      1.614715     -0.050734
  H      -4.204690      1.561934     -0.827569
  N      -4.735804     -0.019370      1.269069
  O      -5.679543      0.061690      0.466088
  O      -4.847626     -0.641486      2.340629
  H      -1.759802      2.661891      0.673759
  C      -3.468405      0.534273      0.939704
  H      -2.843638     -0.535545      0.379340
  H      -2.902032      0.702753      1.850267
  C      -2.532236      2.583029     -0.083572
  H      -2.523955      3.319912     -0.876357
  C       1.194277     -1.544816      0.044390
  C       2.521331     -1.158898     -0.018185
  C       2.809023      0.137093     -0.488652
  C       1.748164      0.959876     -0.866213
  C       0.449706      0.503549     -0.774542
  N       0.199336     -0.729188     -0.325298
  H       0.899734     -2.524664      0.396065
  H       1.935507      1.960331     -1.231249
  H      -0.409117      1.101354     -1.045527
  C       3.603993     -2.103390      0.407587
  H       4.192548     -1.675347      1.222357
  H       4.293790     -2.301674     -0.416046
  H       3.184407     -3.050278      0.743525
  C       4.221303      0.620090     -0.581351
  H       4.264809      1.639010     -0.960839
  H       4.805148     -0.027637     -1.240050
  H       4.702236      0.586654      0.399394
  H      -0.877757     -1.086003     -0.252870
  O      -2.204000     -1.504216     -0.108541
  H      -2.586366     -1.645637     -0.984580
31
Coordinates from ORCA-job /home/rudenko/2025/kie/for_orca/ch2chch2no2_lutidine/orca/ts_opt/ts_opt E -725.689758179487
  C      -3.376228      1.624996      0.024297
  H      -4.074089      1.635802     -0.805158
  N      -4.806642     -0.027474      1.158988
  O      -5.675848      0.109495      0.283464
  O      -5.019557     -0.697130      2.184815
  H      -1.708501      2.573519      0.917544
  C      -3.501176      0.500741      0.957383
  H      -2.863003     -0.553404      0.401569
  H      -3.007998      0.613001      1.917822
  C      -2.427540      2.560016      0.105707
  H      -2.338460      3.333720     -0.645993
  C       1.188340     -1.515788      0.077125
  C       2.514368     -1.130396     -0.005924
  C       2.799390      0.136419     -0.551446
  C       1.736899      0.932485     -0.978268
  C       0.439385      0.478861     -0.861186
  N       0.191487     -0.725955     -0.340397
  H       0.895872     -2.473843      0.485975
  H       1.921867      1.910581     -1.400692
  H      -0.420480      1.058231     -1.166429
  C       3.599133     -2.043367      0.478903
  H       4.186373     -1.562953      1.264866
  H       4.289574     -2.291541     -0.330609
  H       3.181953     -2.968230      0.873941
  C       4.210675      0.617140     -0.668465
  H       4.252461      1.613328     -1.104303
  H       4.797112     -0.064986     -1.289033
  H       4.689670      0.639283      0.313486
  H      -0.885123     -1.085571     -0.250455
  O      -2.202227     -1.520082     -0.087736
  H      -2.587688     -1.676894     -0.959791
31
Coordinates from ORCA-job /home/rudenko/2025/kie/for_orca/ch2chch2no2_lutidine/orca/ts_opt/ts_opt E -725.689538131872
  C      -3.314594      1.629198      0.107467
  H      -4.024072      1.705512     -0.708599
  N      -4.773970     -0.039977      1.185825
  O      -5.660547      0.174781      0.345229
  O      -4.985138     -0.745723      2.186548
  H      -1.608809      2.479807      1.025454
  C      -3.452397      0.453829      0.975912
  H      -2.867630     -0.568944      0.354304
  H      -2.936430      0.499278      1.930046
  C      -2.340779      2.532948      0.226866
  H      -2.241699      3.345699     -0.481085
  C       1.154594     -1.498647      0.063011
  C       2.479271     -1.102444      0.012891
  C       2.774212      0.135688     -0.589815
  C       1.722556      0.892804     -1.105196
  C       0.425895      0.429817     -1.017000
  N       0.167706     -0.746159     -0.438862
  H       0.855516     -2.436736      0.511587
  H       1.915364      1.847732     -1.574632
  H      -0.425622      0.980884     -1.389527
  C       3.552902     -1.974287      0.589832
  H       4.102356     -1.445101      1.371812
  H       4.278585     -2.256167     -0.176713
  H       3.129917     -2.882161      1.016778
  C       4.184259      0.627460     -0.672712
  H       4.234943      1.597115     -1.163925
  H       4.805858     -0.081477     -1.225289
  H       4.618256      0.713642      0.326589
  H      -0.914605     -1.109652     -0.365851
  O      -2.228913     -1.536807     -0.222354
  H      -2.626985     -1.621913     -1.098592
31
Coordinates from ORCA-job /home/rudenko/2025/kie/for_orca/ch2chch2no2_lutidine/orca/ts_opt/ts_opt E -725.689636168941
  C      -3.386583      1.628055      0.040098
  H      -4.160735      1.646523     -0.718613
  N      -4.692794     -0.037687      1.303108
  O      -5.651331      0.104439      0.528081
  O      -4.792687     -0.714477      2.341119
  H      -1.646610      2.575859      0.782765
  C      -3.412879      0.487629      0.962666
  H      -2.846902     -0.550837      0.327570
  H      -2.817800      0.584748      1.865338
  C      -2.439695      2.568038      0.042974
  H      -2.427129      3.352142     -0.703090
  C       1.157221     -1.529782      0.028662
  C       2.482435     -1.133133      0.002672
  C       2.780063      0.135103     -0.532489
  C       1.730421      0.920352     -1.008500
  C       0.433116      0.455334     -0.947394
  N       0.172556     -0.749658     -0.433727
  H       0.855919     -2.489769      0.426504
  H       1.925516      1.898836     -1.425488
  H      -0.417108      1.026116     -1.292706
  C       3.553272     -2.036543      0.534571
  H       4.099480     -1.553028      1.347834
  H       4.282221     -2.275178     -0.243356
  H       3.127941     -2.966760      0.907770
  C       4.190552      0.629277     -0.586810
  H       4.242925      1.622984     -1.027167
  H       4.812945     -0.050669     -1.173793
  H       4.622648      0.663902      0.416486
  H      -0.909983     -1.109518     -0.379753
  O      -2.234710     -1.518281     -0.253597
  H      -2.632285     -1.584016     -1.131736
31
Coordinates from ORCA-job /home/rudenko/2025/kie/for_orca/ch2chch2no2_lutidine/orca/ts_opt/ts_opt E -725.689518058931
  C      -3.381289      1.626485      0.065507
  H      -4.211089      1.658918     -0.631590
  N      -4.587542     -0.057079      1.405424
  O      -5.606080      0.098967      0.715738
  O      -4.602683     -0.745108      2.439937
  H      -1.587948      2.559833      0.688721
  C      -3.335507      0.466744      0.964405
  H      -2.834249     -0.547418      0.270050
  H      -2.668104      0.545804      1.816978
  C      -2.435634      2.565639      0.012216
  H      -2.479121      3.362935     -0.718584
  C       1.124134     -1.532329     -0.007266
  C       2.447548     -1.129171      0.011736
  C       2.758532      0.135616     -0.523953
  C       1.723578      0.910005     -1.047624
  C       0.427262      0.438722     -1.029614
  N       0.153340     -0.761652     -0.512560
  H       0.813170     -2.489786      0.389365
  H       1.929384      1.885228     -1.467170
  H      -0.412083      1.001908     -1.412092
  C       3.502654     -2.022080      0.590890
  H       4.014772     -1.529923      1.421034
  H       4.261976     -2.261265     -0.157165
  H       3.068977     -2.952395      0.954107
  C       4.167052      0.638137     -0.528130
  H       4.231085      1.626537     -0.978789
  H       4.817124     -0.044938     -1.080359
  H       4.558142      0.689058      0.491274
  H      -0.933779     -1.119898     -0.487049
  O      -2.258755     -1.510136     -0.389444
  H      -2.664865     -1.507357     -1.265991
31
Coordinates from ORCA-job /home/rudenko/2025/kie/for_orca/ch2chch2no2_lutidine/orca/ts_opt/ts_opt E -725.689458502671
  C      -3.406858      1.624111      0.059850
  H      -4.298396      1.642010     -0.556878
  N      -4.458086     -0.068624      1.515313
  O      -5.539383      0.074465      0.926672
  O      -4.366260     -0.748072      2.551187
  H      -1.574600      2.582959      0.505717
  C      -3.259702      0.467938      0.953212
  H      -2.816487     -0.535266      0.218392
  H      -2.515089      0.559610      1.738003
  C      -2.482872      2.574663     -0.086865
  H      -2.605706      3.367327     -0.813709
  C       1.100482     -1.545763     -0.043290
  C       2.421762     -1.139034      0.015975
  C       2.742183      0.135026     -0.491499
  C       1.718676      0.914010     -1.030470
  C       0.424215      0.438129     -1.054006
  N       0.140839     -0.771001     -0.563297
  H       0.782657     -2.509888      0.331139
  H       1.932105      1.896215     -1.429462
  H      -0.406655      1.004689     -1.450015
  C       3.464907     -2.038179      0.607037
  H       3.952500     -1.559618      1.459609
  H       4.244988     -2.260250     -0.124755
  H       3.025844     -2.976776      0.941278
  C       4.148274      0.642578     -0.450579
  H       4.220783      1.636725     -0.887164
  H       4.816282     -0.031185     -0.992705
  H       4.510866      0.682761      0.579844
  H      -0.949921     -1.126494     -0.566610
  O      -2.279232     -1.495349     -0.494393
  H      -2.688115     -1.437717     -1.367533
31
Coordinates from ORCA-job /home/rudenko/2025/kie/for_orca/ch2chch2no2_lutidine/orca/ts_opt/ts_opt E -725.689491410419
  C      -3.393137      1.624759      0.066095
  H      -4.270596      1.656118     -0.569813
  N      -4.498973     -0.066256      1.481847
  O      -5.558839      0.081784      0.856641
  O      -4.443936     -0.752562      2.515751
  H      -1.560129      2.560262      0.557557
  C      -3.280469      0.463876      0.958507
  H      -2.823975     -0.540020      0.232762
  H      -2.558332      0.547443      1.764922
  C      -2.455115      2.565161     -0.055031
  H      -2.552899      3.363108     -0.779855
  C       1.104639     -1.539084     -0.028009
  C       2.426659     -1.132836      0.018258
  C       2.744249      0.137077     -0.501336
  C       1.717045      0.913358     -1.036983
  C       0.422211      0.437963     -1.047823
  N       0.141739     -0.767933     -0.547471
  H       0.789145     -2.500667      0.354807
  H       1.927946      1.892588     -1.444526
  H      -0.411043      1.002069     -1.442210
  C       3.474132     -2.028766      0.606565
  H       3.970460     -1.544093      1.450592
  H       4.246931     -2.257597     -0.130881
  H       3.037142     -2.964159      0.952313
  C       4.151523      0.642595     -0.477372
  H       4.221385      1.633878     -0.920860
  H       4.812851     -0.035685     -1.022127
  H       4.524374      0.688226      0.549093
  H      -0.948068     -1.125853     -0.546070
  O      -2.275443     -1.502219     -0.470195
  H      -2.681476     -1.452534     -1.345148
31
Coordinates from ORCA-job /home/rudenko/2025/kie/for_orca/ch2chch2no2_lutidine/orca/ts_opt/ts_opt E -725.689521065423
  C      -3.343479      1.623980      0.104251
  H      -4.179511      1.701440     -0.581357
  N      -4.593698     -0.072068      1.389072
  O      -5.596704      0.114717      0.685622
  O      -4.638709     -0.768570      2.416033
  H      -1.510562      2.479869      0.725775
  C      -3.325278      0.439497      0.973439
  H      -2.843170     -0.553108      0.263837
  H      -2.665844      0.490102      1.834484
  C      -2.367768      2.532108      0.063359
  H      -2.394373      3.350238     -0.644905
  C       1.108095     -1.515437      0.006471
  C       2.430981     -1.109809      0.025731
  C       2.744816      0.141874     -0.538532
  C       1.712618      0.902470     -1.086648
  C       0.417392      0.428119     -1.069660
  N       0.140598     -0.761145     -0.529075
  H       0.795758     -2.464087      0.422741
  H       1.919818      1.868131     -1.527169
  H      -0.418901      0.980326     -1.474029
  C       3.484283     -1.988149      0.629960
  H       3.994702     -1.475849      1.448838
  H       4.245209     -2.245142     -0.110609
  H       3.049997     -2.909557      1.014483
  C       4.153636      0.643848     -0.549281
  H       4.219716      1.621098     -1.023372
  H       4.804928     -0.052445     -1.083377
  H       4.541464      0.718457      0.469863
  H      -0.948669     -1.124859     -0.516012
  O      -2.268145     -1.519564     -0.431098
  H      -2.669202     -1.476486     -1.308835
31
Coordinates from ORCA-job /home/rudenko/2025/kie/for_orca/ch2chch2no2_lutidine/orca/ts_opt/ts_opt E -725.689516371126
  C      -3.377933      1.624743      0.073125
  H      -4.241653      1.671472     -0.580301
  N      -4.539442     -0.064447      1.446156
  O      -5.577445      0.092760      0.787420
  O      -4.523170     -0.750515      2.481255
  H      -1.541770      2.531148      0.606376
  C      -3.301073      0.459029      0.963456
  H      -2.831707     -0.544238      0.248846
  H      -2.603806      0.535182      1.792131
  C      -2.424186      2.551960     -0.023821
  H      -2.495759      3.354847     -0.746250
  C       1.109180     -1.533261     -0.015377
  C       2.431530     -1.126950      0.018535
  C       2.745593      0.139413     -0.511787
  C       1.714471      0.912561     -1.044326
  C       0.419558      0.437144     -1.042820
  N       0.142504     -0.765618     -0.533057
  H       0.796323     -2.492059      0.376497
  H       1.922176      1.889492     -1.458969
  H      -0.416424      0.999009     -1.434525
  C       3.483193     -2.018906      0.605384
  H       3.987715     -1.527423      1.440531
  H       4.248997     -2.255038     -0.137084
  H       3.048411     -2.950812      0.963121
  C       4.153281      0.644403     -0.502210
  H       4.219724      1.633506     -0.951024
  H       4.809222     -0.036799     -1.049857
  H       4.535285      0.694328      0.520655
  H      -0.946858     -1.126365     -0.525926
  O      -2.271359     -1.511074     -0.444737
  H      -2.674575     -1.467491     -1.321417
31
Coordinates from ORCA-job /home/rudenko/2025/kie/for_orca/ch2chch2no2_lutidine/orca/ts_opt/ts_opt E -725.689520829088
  C      -3.392779      1.626055      0.067181
  H      -4.261679      1.664573     -0.579865
  N      -4.533329     -0.066217      1.453754
  O      -5.576096      0.079272      0.799831
  O      -4.505808     -0.747463      2.491810
  H      -1.559210      2.547328      0.583840
  C      -3.301769      0.464501      0.961585
  H      -2.829945     -0.538677      0.248368
  H      -2.600224      0.549144      1.785805
  C      -2.446193      2.559469     -0.040146
  H      -2.528678      3.359258     -0.764850
  C       1.111865     -1.535053     -0.016694
  C       2.434832     -1.130832      0.017872
  C       2.750234      0.137574     -0.506716
  C       1.719768      0.914647     -1.034806
  C       0.424188      0.441054     -1.034438
  N       0.145818     -0.763579     -0.529832
  H       0.798028     -2.495318      0.370773
  H       1.928552      1.893081     -1.445349
  H      -0.411240      1.005694     -1.423250
  C       3.485788     -2.027370      0.598964
  H       3.992275     -1.540771      1.435771
  H       4.250182     -2.261233     -0.145686
  H       3.049899     -2.960246      0.952794
  C       4.158694      0.640356     -0.496345
  H       4.226122      1.631510     -0.940470
  H       4.812925     -0.039209     -1.048072
  H       4.542010      0.684748      0.526276
  H      -0.943965     -1.122877     -0.523669
  O      -2.269019     -1.506269     -0.443639
  H      -2.671244     -1.463149     -1.320797
31
Coordinates from ORCA-job /home/rudenko/2025/kie/for_orca/ch2chch2no2_lutidine/orca/ts_opt/ts_opt E -725.689529031462
  C      -3.441282      1.629098      0.049546
  H      -4.327847      1.642235     -0.574112
  N      -4.511689     -0.073984      1.478700
  O      -5.568554      0.031609      0.840173
  O      -4.448069     -0.736293      2.527321
  H      -1.614019      2.594578      0.505795
  C      -3.303200      0.481089      0.955562
  H      -2.824607     -0.518342      0.246747
  H      -2.588199      0.593981      1.764763
  C      -2.517265      2.580062     -0.094447
  H      -2.635997      3.369324     -0.825623
  C       1.119427     -1.539523     -0.020362
  C       2.444630     -1.142835      0.016087
  C       2.765227      0.131477     -0.490716
  C       1.737211      0.922163     -1.003202
  C       0.439135      0.455481     -1.005686
  N       0.155953     -0.755269     -0.518659
  H       0.801794     -2.504087      0.353096
  H       1.949968      1.905409     -1.399985
  H      -0.394420      1.029955     -1.384392
  C       3.492572     -2.053949      0.579691
  H       4.005712     -1.582544      1.421132
  H       4.252233     -2.281741     -0.171663
  H       3.052486     -2.989145      0.921988
  C       4.176566      0.625959     -0.478689
  H       4.247775      1.623664     -0.907296
  H       4.824210     -0.048502     -1.044309
  H       4.564901      0.651742      0.542652
  H      -0.935613     -1.109888     -0.517430
  O      -2.261014     -1.489190     -0.443676
  H      -2.658027     -1.442535     -1.323006
31
Coordinates from ORCA-job /home/rudenko/2025/kie/for_orca/ch2chch2no2_lutidine/orca/ts_opt/ts_opt E -725.689534676904
  C      -3.472148      1.630193      0.032166
  H      -4.360913      1.625854     -0.588484
  N      -4.519800     -0.072706      1.478004
  O      -5.576113      0.008450      0.834844
  O      -4.449777     -0.719638      2.535730
  H      -1.655254      2.622955      0.471817
  C      -3.318763      0.495290      0.952023
  H      -2.824646     -0.507209      0.255846
  H      -2.607506      0.628733      1.761395
  C      -2.559810      2.590274     -0.125690
  H      -2.690397      3.369794     -0.865231
  C       1.130745     -1.542757     -0.017761
  C       2.457672     -1.151354      0.011969
  C       2.778608      0.127878     -0.482021
  C       1.748963      0.929147     -0.974502
  C       0.449047      0.467539     -0.970655
  N       0.165816     -0.748552     -0.497045
  H       0.812737     -2.510708      0.346497
  H       1.961838      1.916695     -1.360365
  H      -0.385825      1.049941     -1.334217
  C       3.506791     -2.072875      0.556126
  H       4.029166     -1.612889      1.398182
  H       4.258940     -2.295417     -0.204340
  H       3.065890     -3.010040      0.891925
  C       4.192067      0.616384     -0.477734
  H       4.263146      1.619536     -0.893443
  H       4.830784     -0.053002     -1.059338
  H       4.591161      0.626445      0.539704
  H      -0.926464     -1.101169     -0.493826
  O      -2.252100     -1.482059     -0.419689
  H      -2.643857     -1.444733     -1.301885
31
Coordinates from ORCA-job /home/rudenko/2025/kie/for_orca/ch2chch2no2_lutidine/orca/ts_opt/ts_opt E -725.689551371029
  C      -3.460896      1.628957      0.025860
  H      -4.331429      1.626206     -0.620095
  N      -4.556409     -0.062842      1.448267
  O      -5.596961      0.027105      0.780230
  O      -4.517029     -0.711877      2.506593
  H      -1.653044      2.614985      0.514685
  C      -3.339700      0.497259      0.953742
  H      -2.829321     -0.515488      0.271541
  H      -2.648741      0.628120      1.780804
  C      -2.540042      2.584613     -0.108671
  H      -2.645486      3.361922     -0.854518
  C       1.138138     -1.542166     -0.009573
  C       2.465008     -1.150079      0.008101
  C       2.780603      0.129701     -0.487876
  C       1.745972      0.930839     -0.970065
  C       0.446269      0.468833     -0.954053
  N       0.168297     -0.747870     -0.478788
  H       0.823877     -2.510317      0.357359
  H       1.954669      1.918946     -1.356746
  H      -0.392449      1.051365     -1.308194
  C       3.519323     -2.070914      0.543245
  H       4.047940     -1.610625      1.381214
  H       4.265604     -2.292694     -0.223210
  H       3.081947     -3.008532      0.882374
  C       4.193741      0.619131     -0.495889
  H       4.260407      1.622740     -0.911197
  H       4.827487     -0.049292     -1.083997
  H       4.602066      0.628311      0.517882
  H      -0.921833     -1.102120     -0.465183
  O      -2.247951     -1.489661     -0.380539
  H      -2.640060     -1.474556     -1.263305
31
Coordinates from ORCA-job /home/rudenko/2025/kie/for_orca/ch2chch2no2_lutidine/orca/ts_opt/ts_opt E -725.689551215704
  C      -3.485553      1.629814      0.018469
  H      -4.357043      1.615282     -0.626062
  N      -4.563050     -0.066980      1.448879
  O      -5.602491      0.001628      0.776497
  O      -4.517081     -0.709032      2.511271
  H      -1.686779      2.636594      0.499323
  C      -3.352412      0.504782      0.952674
  H      -2.829779     -0.505927      0.276467
  H      -2.664317      0.648269      1.780046
  C      -2.574104      2.593517     -0.122891
  H      -2.688454      3.365744     -0.872682
  C       1.144868     -1.540396     -0.006801
  C       2.473516     -1.154249      0.006869
  C       2.792561      0.126362     -0.484682
  C       1.759246      0.934736     -0.957638
  C       0.457479      0.478666     -0.937416
  N       0.176396     -0.739261     -0.467112
  H       0.828008     -2.509177      0.356222
  H       1.970645      1.923669     -1.340715
  H      -0.380260      1.066611     -1.285005
  C       3.526025     -2.082352      0.532984
  H       4.060402     -1.628300      1.370707
  H       4.267923     -2.304106     -0.237723
  H       3.085867     -3.019493      0.869823
  C       4.208016      0.608880     -0.498258
  H       4.277314      1.614333     -0.908654
  H       4.834971     -0.059578     -1.093592
  H       4.622321      0.610664      0.513106
  H      -0.914490     -1.090645     -0.452509
  O      -2.240492     -1.479333     -0.368628
  H      -2.629254     -1.470722     -1.252971
31
Coordinates from ORCA-job /home/rudenko/2025/kie/for_orca/ch2chch2no2_lutidine/orca/ts_opt/ts_opt E -725.689548599307
  C      -3.482871      1.629121      0.021941
  H      -4.357144      1.617173     -0.618901
  N      -4.556559     -0.068799      1.454081
  O      -5.599242      0.004141      0.787374
  O      -4.507157     -0.711282      2.516027
  H      -1.679909      2.631564      0.496047
  C      -3.347076      0.501777      0.953080
  H      -2.829473     -0.506655      0.272576
  H      -2.654987      0.642570      1.777616
  C      -2.570307      2.591354     -0.121961
  H      -2.686613      3.365017     -0.869968
  C       1.141954     -1.539718     -0.008674
  C       2.470440     -1.153040      0.007960
  C       2.790329      0.126878     -0.484856
  C       1.758005      0.934044     -0.962002
  C       0.456388      0.477442     -0.944682
  N       0.174476     -0.739824     -0.473207
  H       0.824500     -2.508083      0.354949
  H       1.970102      1.922382     -1.346234
  H      -0.380610      1.064510     -1.295596
  C       3.521958     -2.079938      0.538188
  H       4.053668     -1.624604      1.376920
  H       4.266198     -2.302152     -0.230116
  H       3.081374     -3.016938      0.874866
  C       4.205623      0.609940     -0.495400
  H       4.275687      1.614619     -0.907563
  H       4.834579     -0.059416     -1.087600
  H       4.617049      0.613939      0.517139
  H      -0.916662     -1.091341     -0.460593
  O      -2.242295     -1.479227     -0.378661
  H      -2.631426     -1.465457     -1.262749
31
Coordinates from ORCA-job /home/rudenko/2025/kie/for_orca/ch2chch2no2_lutidine/orca/ts_opt/ts_opt E -725.689551964399
  C      -3.484299      1.628673      0.019799
  H      -4.355916      1.615237     -0.624633
  N      -4.562726     -0.067679      1.450106
  O      -5.603154      0.004284      0.779623
  O      -4.517060     -0.709042      2.513002
  H      -1.683674      2.632716      0.499490
  C      -3.351830      0.502990      0.953251
  H      -2.830190     -0.507036      0.275509
  H      -2.662922      0.645059      1.780215
  C      -2.571543      2.591073     -0.122060
  H      -2.685147      3.363394     -0.871866
  C       1.143833     -1.539340     -0.007323
  C       2.472540     -1.153374      0.007065
  C       2.792109      0.126860     -0.485134
  C       1.759256      0.935085     -0.959356
  C       0.457410      0.479219     -0.939812
  N       0.175856     -0.738415     -0.469053
  H       0.826562     -2.507898      0.355938
  H       1.971116      1.923702     -1.342991
  H      -0.380017      1.067132     -1.288287
  C       3.524563     -2.081273      0.534523
  H       4.057766     -1.627027      1.372898
  H       4.267501     -2.302973     -0.235184
  H       3.084153     -3.018455      0.870919
  C       4.207635      0.609171     -0.498025
  H       4.277422      1.614235     -0.909290
  H       4.835021     -0.059927     -1.092180
  H       4.621110      0.611894      0.513682
  H      -0.914956     -1.089743     -0.454621
  O      -2.240779     -1.478880     -0.370964
  H      -2.629639     -1.469660     -1.255240
31
Coordinates from ORCA-job /home/rudenko/2025/kie/for_orca/ch2chch2no2_lutidine/orca/ts_opt/ts_opt E -725.689555752932
  C      -3.478557      1.628342      0.021725
  H      -4.347500      1.617680     -0.626353
  N      -4.566516     -0.066258      1.446702
  O      -5.604765      0.009602      0.773172
  O      -4.525689     -0.710398      2.508207
  H      -1.677579      2.627617      0.509957
  C      -3.352604      0.501355      0.954368
  H      -2.830859     -0.510101      0.276180
  H      -2.665647      0.640018      1.783505
  C      -2.562956      2.588767     -0.115312
  H      -2.671614      3.362154     -0.864756
  C       1.143193     -1.538689     -0.006871
  C       2.471680     -1.151995      0.006994
  C       2.790616      0.127576     -0.487344
  C       1.757427      0.934300     -0.963376
  C       0.455832      0.477761     -0.943294
  N       0.174860     -0.739112     -0.470220
  H       0.826349     -2.506698      0.358212
  H       1.968808      1.922360     -1.348703
  H      -0.381855      1.064605     -1.292868
  C       3.524118     -2.078331      0.536346
  H       4.056598     -1.622405      1.374273
  H       4.267573     -2.300671     -0.232670
  H       3.084222     -3.015310      0.873978
  C       4.205814      0.610837     -0.500366
  H       4.275136      1.615159     -0.913518
  H       4.834033     -0.058962     -1.092842
  H       4.618668      0.615805      0.511591
  H      -0.915504     -1.090811     -0.454522
  O      -2.241669     -1.480720     -0.369185
  H      -2.631614     -1.473476     -1.253007
31
Coordinates from ORCA-job /home/rudenko/2025/kie/for_orca/ch2chch2no2_lutidine/orca/ts_opt/ts_opt E -725.689552765780
  C      -3.476865      1.627804      0.025705
  H      -4.347708      1.619855     -0.619868
  N      -4.563060     -0.068213      1.450422
  O      -5.602963      0.009913      0.779816
  O      -4.520088     -0.714054      2.510798
  H      -1.672736      2.623182      0.510305
  C      -3.349718      0.498569      0.955516
  H      -2.831084     -0.510912      0.273234
  H      -2.660174      0.634475      1.782969
  C      -2.560132      2.587000     -0.112251
  H      -2.669862      3.362064     -0.859804
  C       1.140890     -1.537121     -0.008068
  C       2.469411     -1.150589      0.007939
  C       2.789657      0.127803     -0.488600
  C       1.757699      0.933513     -0.968985
  C       0.456012      0.477160     -0.950930
  N       0.173761     -0.738534     -0.475629
  H       0.823062     -2.504254      0.358476
  H       1.970135      1.920627     -1.356156
  H      -0.380743      1.063307     -1.303885
  C       3.520565     -2.075857      0.541698
  H       4.050810     -1.618356      1.380196
  H       4.266042     -2.299466     -0.224974
  H       3.079909     -3.012282      0.879880
  C       4.204917      0.610924     -0.499289
  H       4.275378      1.614176     -0.914844
  H       4.834643     -0.060433     -1.088386
  H       4.615171      0.618530      0.513717
  H      -0.916814     -1.090025     -0.461202
  O      -2.242834     -1.479748     -0.377122
  H      -2.633279     -1.469057     -1.260675
