31
Coordinates from ORCA-job /home/rudenko/2025/kie/for_orca/ch2chch2no2_lutidine/orca/ts_opt/ts_opt
  C   -3.47686545055755      1.62780418570969      0.02570486175442
  H   -4.34770846753294      1.61985530952000     -0.61986826420371
  N   -4.56305975738829     -0.06821301118043      1.45042166878208
  O   -5.60296272880350      0.00991310740263      0.77981551118344
  O   -4.52008848416916     -0.71405415733226      2.51079771392909
  H   -1.67273575287377      2.62318244477635      0.51030452178410
  C   -3.34971765952610      0.49856935044586      0.95551588624120
  H   -2.83108422997256     -0.51091231005410      0.27323380538241
  H   -2.66017386868423      0.63447501145656      1.78296908426687
  C   -2.56013230463769      2.58700047296677     -0.11225115191978
  H   -2.66986242713432      3.36206444228996     -0.85980428136125
  C   1.14089013713761     -1.53712053221502     -0.00806758603726
  C   2.46941107957661     -1.15058947784414      0.00793927120581
  C   2.78965652015662      0.12780273950074     -0.48859978020384
  C   1.75769906419695      0.93351280602418     -0.96898499814660
  C   0.45601248998431      0.47715951175685     -0.95093034144512
  N   0.17376127942523     -0.73853402776661     -0.47562863880442
  H   0.82306191612085     -2.50425417672151      0.35847638504887
  H   1.97013510910290      1.92062691465229     -1.35615599281806
  H   -0.38074319040186      1.06330650722287     -1.30388529471435
  C   3.52056476853410     -2.07585723546831      0.54169843549037
  H   4.05080980578514     -1.61835583856969      1.38019574388860
  H   4.26604198933623     -2.29946603115857     -0.22497447199037
  H   3.07990901833693     -3.01228202615677      0.87987982859262
  C   4.20491748408703      0.61092382751519     -0.49928935836336
  H   4.27537752590977      1.61417591942750     -0.91484415561687
  H   4.83464275817852     -0.06043346546913     -1.08838625204825
  H   4.61517064249821      0.61852954309859      0.51371725859229
  H   -0.91681421025506     -1.09002516102622     -0.46120214266453
  O   -2.24283411585993     -1.47974761447533     -0.37712182971621
  H   -2.63327894057012     -1.46905702832793     -1.26067543608822
