!  opt B3LYP def2-TZVP CPCM D3 
%pal nprocs 102 end
%cpcm epsilon 78.4 end 
*xyz -1 1 
C   0.50386005 -0.824864 0.69608122
H   1.05537301 -1.68769307 0.37046437
H   2.251026 0.47923159 0.3333236
H   0.51444158 -0.62939704 1.75236591
N   -0.20512456 -0.0936515 -0.13880216
O   -0.85817092 0.91458428 0.25463463
O   -0.24969895 -0.35058148 -1.37586016
C   5.99910852 0.32063898 -0.6063833
O   7.07716908 -0.02034138 -1.04047139
O   5.01180749 -0.57601212 -0.58689411
C   5.68597616 1.69080594 -0.07474958
Cl   5.82939698 1.58786992 1.68560676
H   4.65701456 2.03628898 -0.32000545
H   6.39555004 2.45963189 -0.43879567
H   2.9393566 -0.21343456 1.52736729
O   3.10239569 0.42106008 0.80473485
H   4.14422363 -0.23843602 -0.09274323
*
