17
Coordinates from ORCA-job /home/rudenko/2025/kie/for_orca/ch3no2_ch3coo/orca/ts_opt/ts_opt
  C   0.26418738231820     -1.76030450180090      2.01965575620667
  H   1.17229729287851     -1.18837031330824      1.16584215569022
  H   0.46140108097778     -1.36755406170409      3.01080946762580
  H   0.35603488691688     -2.83551862542251      1.91483099067030
  N   -0.98496119354986     -1.31712703057637      1.54526437267706
  O   -1.44722466409511     -0.23403434119187      1.95392224409413
  O   -1.56498156163290     -1.96566895697007      0.65320372315110
  C   -0.05060305100033      1.05584495423321     -1.53240211005555
  O   0.73043198944775      1.31121389321203     -0.50666430144915
  O   -0.10297765714016     -0.03040575952094     -2.09552057272327
  C   -0.90017325574683      2.23154712167176     -1.94610090881658
  H   -1.39071185889477      2.03202153058056     -2.89576938168119
  H   -0.29246661845560      3.13407208396267     -2.01794178452334
  H   -1.65892084205008      2.40633962593382     -1.17952326541625
  H   1.26982543338931      0.44038846944600     -0.17784316198620
  O   1.98948791067272     -0.63343257394266      0.39446270124115
  H   2.14935472596450     -1.27901151460240     -0.30622592470487
