41
Coordinates from ORCA-job /home/rudenko/2025/kie/for_orca/m-o2nc6h4chno2ch3_piperidine/orca/ts_opt/ts_opt
  C   -2.81750568345223      0.20131561035747     -2.93013895101440
  C   -1.55143663192549      0.65654731465360     -2.58122679050181
  C   -0.48201908787023     -0.22946912239348     -2.43690073398669
  C   -0.69334075284044     -1.58674916269181     -2.64794778684725
  C   -1.96446730484246     -2.02147314737684     -2.99286266417506
  C   -3.03748812467118     -1.15176188795844     -3.13953844726071
  H   -3.63451507873823      0.90249749766786     -3.03692426342440
  H   -1.38955936968929      1.71447083479755     -2.41895473148011
  H   0.10378486653755     -2.30569012405306     -2.54834819382138
  H   -4.01214545248273     -1.52839243773887     -3.40804091186098
  N   -2.17861705089402     -3.45754009205033     -3.20800180431115
  O   -3.30793771152736     -3.83882508324474     -3.48809027180943
  O   -1.21895491847721     -4.20971466206904     -3.09739409376579
  C   0.87302985338958      0.31810340414924     -2.06370751614191
  C   1.79722689418548     -0.63178680995692     -1.31790432332653
  H   1.30893141226400     -0.92913591148040     -0.39078265570345
  H   2.73145745856044     -0.12823551379686     -1.07078810404535
  H   2.02070080511916     -1.52333967546634     -1.90105743180389
  N   1.59619831976690      0.74995063495967     -3.34775183604165
  O   1.74066302697517     -0.07984524011742     -4.22925368291426
  O   2.00588568904807      1.89701919898056     -3.40733022373712
  H   0.75075245796074      1.24406393814831     -1.50521610870644
  C   -0.36910081733576      0.49093832248072      4.42450298617112
  C   0.80292438964032     -0.41827939651772      4.55449195727017
  C   2.04388575210206      0.15636472218902      3.85128010413154
  C   1.68826436588568      0.67477122066979      2.45817855592177
  N   0.60864304348077      1.67356291145770      2.47550943467897
  C   -0.61731806343579      1.13626307608391      3.10548425413178
  H   -1.14541512763725      0.49987047776944      5.17913583655047
  H   1.01732908396499     -0.63727830075369      5.60274237916706
  H   0.56509102880475     -1.38763171067053      4.08249520056548
  H   2.82446366582410     -0.60534359305425      3.77796650268967
  H   2.45000954674898      0.98260002501067      4.44390767013448
  H   2.56040693674120      1.12098461248630      1.97751443459933
  H   1.35612254355658     -0.15432137442601      1.82664250109333
  H   0.92139466384811      2.47367388418769      3.01958818588717
  H   -1.34719888532044      1.94284720044317      3.18409969824356
  H   -1.03467500120098      0.40462096875009      2.39439254978733
  H   0.14370396304160      2.30769327712258      0.90118237588998
  H   -1.01774197190244      2.52880146618062     -0.12207067605249
  O   -0.09143273320281      2.74785264727073      0.03111757581914
