!  opt B3LYP def2-TZVP CPCM D3 
%pal nprocs 102 end
%cpcm epsilon 78.4 end 
*xyz -1 1 
C   0.46770767 -1.16442653 0.81931018
H   0.95251561 -1.09062455 -0.18045472
H   0.96404287 -0.43312479 1.49425321
H   0.63976533 -2.17724574 1.23357969
N   -0.95492685 -0.87660791 0.70247574
O   -1.75932263 -1.66547625 1.17844061
O   -1.30898785 0.13799844 0.12179536
C   0.66868277 2.71152924 -3.76935093
O   1.49603957 3.29175587 -3.03373886
O   1.00305308 1.92141414 -4.6759545
C   -0.8000074 3.00789427 -3.57727442
H   -1.43323006 2.29064491 -4.11255742
H   -1.04087474 4.01194409 -3.94798742
H   -1.07306222 2.9741753 -2.51589806
H   1.79814 1.46521055 -1.85549354
O   1.23245422 0.80007416 -1.44101307
H   0.63875194 1.3026667 -0.87558125
*
