40
Coordinates from ORCA-job /home/rudenko/2025/kie/for_orca/c6h5chno2ch3_piperidine/orca/ts_opt/ts_opt E -843.638994482843
  C      -1.691021      2.495829     -1.312116
  C      -1.336320      1.167110     -1.524851
  C      -2.153268      0.132273     -1.107140
  C      -3.349608      0.442647     -0.452148
  C      -3.708653      1.764902     -0.229458
  C      -2.879821      2.798210     -0.660203
  H      -1.032951      3.285824     -1.650157
  H      -0.411587      0.944374     -2.047177
  H      -4.006260     -0.350329     -0.118794
  H      -3.162479      3.829009     -0.487730
  C      -1.770350     -1.305406     -1.380088
  C      -1.960033     -2.270081     -0.231124
  H      -1.616424     -3.258669     -0.538713
  H      -2.998678     -2.340123      0.085841
  H      -1.384041     -1.958091      0.635965
  N      -2.622009     -1.772851     -2.581347
  O      -2.168873     -1.551968     -3.693542
  O      -3.698554     -2.302950     -2.374464
  N       1.151793      0.089718      0.832624
  C       1.882717     -1.144298      1.137620
  C       2.621178     -1.017410      2.467428
  C       3.556683      0.192765      2.456485
  C       2.791831      1.455647      2.060012
  C       2.051559      1.245516      0.743202
  H       1.454492      2.126827      0.498352
  H       2.790835      1.116853     -0.066395
  H       3.470780      2.306834      1.964831
  H       2.065344      1.702939      2.841074
  H       3.181223     -1.935511      2.661727
  H       1.886233     -0.908625      3.271789
  H       2.619168     -1.379352      0.351413
  H      -0.763123     -1.359862     -1.789167
  H       0.694075     -0.006047     -0.068894
  H       1.172691     -1.968588      1.196971
  H       4.033651      0.319579      3.431523
  H       4.358549      0.018753      1.729623
  H      -4.637837      1.988977      0.278994
  H       2.009350     -1.531117     -1.706922
  H       2.051468     -0.135296     -2.356951
  O       1.508268     -0.928017     -2.268094
40
Coordinates from ORCA-job /home/rudenko/2025/kie/for_orca/c6h5chno2ch3_piperidine/orca/ts_opt/ts_opt E -843.638421219861
  C      -1.703949      2.483717     -1.303503
  C      -1.341262      1.156173     -1.519544
  C      -2.152659      0.124453     -1.105851
  C      -3.348135      0.429556     -0.446063
  C      -3.712430      1.747423     -0.214955
  C      -2.890184      2.783305     -0.646365
  H      -1.050280      3.276811     -1.642836
  H      -0.419126      0.933596     -2.046926
  H      -4.002310     -0.367273     -0.117094
  H      -3.175032      3.813085     -0.471416
  C      -1.775284     -1.294487     -1.390876
  C      -1.975124     -2.264753     -0.248728
  H      -1.623813     -3.250721     -0.556005
  H      -3.017416     -2.340384      0.054657
  H      -1.407077     -1.956474      0.625949
  N      -2.625230     -1.749520     -2.598074
  O      -2.167431     -1.523228     -3.707261
  O      -3.705293     -2.275185     -2.398295
  N       1.166236      0.094692      0.838511
  C       1.883931     -1.131721      1.142481
  C       2.614323     -1.000581      2.476661
  C       3.565423      0.198296      2.463483
  C       2.808793      1.463094      2.052868
  C       2.073597      1.239580      0.735850
  H       1.488353      2.124050      0.474425
  H       2.817496      1.095858     -0.065238
  H       3.490900      2.310977      1.951049
  H       2.082610      1.722907      2.830140
  H       3.159288     -1.925129      2.682899
  H       1.875315     -0.873090      3.274522
  H       2.627357     -1.368818      0.360112
  H      -0.775287     -1.354394     -1.791240
  H       0.704399     -0.007000     -0.054220
  H       1.171790     -1.955312      1.201944
  H       4.036244      0.327407      3.441205
  H       4.369869      0.012687      1.742372
  H      -4.641136      1.965624      0.296916
  H       2.007375     -1.544466     -1.704084
  H       2.054856     -0.170922     -2.353424
  O       1.510302     -0.949833     -2.264043
40
Coordinates from ORCA-job /home/rudenko/2025/kie/for_orca/c6h5chno2ch3_piperidine/orca/ts_opt/ts_opt E -843.636152028078
  C      -1.719246      2.464031     -1.288696
  C      -1.349535      1.136136     -1.510989
  C      -2.155831      0.113172     -1.101528
  C      -3.349115      0.414745     -0.429856
  C      -3.717177      1.726855     -0.189260
  C      -2.899026      2.764421     -0.623992
  H      -1.070063      3.259863     -1.631492
  H      -0.431454      0.916554     -2.048201
  H      -3.999370     -0.385129     -0.101719
  H      -3.181727      3.794392     -0.447329
  C      -1.787017     -1.279320     -1.407374
  C      -1.987692     -2.272065     -0.278720
  H      -1.619298     -3.251157     -0.589546
  H      -3.033051     -2.364702      0.005609
  H      -1.429564     -1.971683      0.609996
  N      -2.634937     -1.715993     -2.627833
  O      -2.168579     -1.476282     -3.730443
  O      -3.723573     -2.228848     -2.442655
  N       1.184955      0.110033      0.843568
  C       1.881140     -1.108356      1.152863
  C       2.601645     -0.977117      2.495088
  C       3.573558      0.207297      2.478267
  C       2.833779      1.477880      2.038944
  C       2.106659      1.232766      0.720152
  H       1.543195      2.122208      0.428719
  H       2.858331      1.060367     -0.065859
  H       3.523686      2.318319      1.926632
  H       2.108112      1.762109      2.807711
  H       3.124791     -1.910932      2.717854
  H       1.857223     -0.822640      3.282815
  H       2.635531     -1.349695      0.376954
  H      -0.791293     -1.347497     -1.797904
  H       0.715391     -0.003794     -0.037938
  H       1.163325     -1.931970      1.207218
  H       4.032862      0.342052      3.460465
  H       4.383845      0.002452      1.769913
  H      -4.642305      1.939803      0.331225
  H       1.999281     -1.567665     -1.694265
  H       2.055670     -0.218467     -2.350423
  O       1.506878     -0.982143     -2.257969
40
Coordinates from ORCA-job /home/rudenko/2025/kie/for_orca/c6h5chno2ch3_piperidine/orca/ts_opt/ts_opt E -843.634538817783
  C      -1.731900      2.457230     -1.274061
  C      -1.361374      1.128344     -1.505533
  C      -2.166616      0.109580     -1.097230
  C      -3.355013      0.409962     -0.410673
  C      -3.720836      1.718726     -0.160661
  C      -2.904228      2.757902     -0.600271
  H      -1.085481      3.254814     -1.618926
  H      -0.445466      0.911517     -2.054161
  H      -4.001487     -0.391640     -0.079571
  H      -3.182650      3.788378     -0.420241
  C      -1.805004     -1.270609     -1.423663
  C      -2.002788     -2.289367     -0.313132
  H      -1.616038     -3.258900     -0.631717
  H      -3.050624     -2.401962     -0.045812
  H      -1.454125     -1.998653      0.587391
  N      -2.654404     -1.688090     -2.654702
  O      -2.166670     -1.468595     -3.751985
  O      -3.727774     -2.235087     -2.479827
  N       1.202516      0.131483      0.845000
  C       1.879137     -1.087033      1.164518
  C       2.589221     -0.958243      2.514473
  C       3.577061      0.215264      2.496200
  C       2.859319      1.492219      2.027617
  C       2.141646      1.232224      0.705350
  H       1.602272      2.126979      0.385360
  H       2.902120      1.028319     -0.064571
  H       3.561147      2.321771      1.908572
  H       2.132704      1.801445      2.785523
  H       3.095409     -1.898105      2.750369
  H       1.839234     -0.783265      3.292443
  H       2.646100     -1.331384      0.396719
  H      -0.810018     -1.344549     -1.808494
  H       0.724487      0.005428     -0.026909
  H       1.155311     -1.909420      1.210128
  H       4.022785      0.356668      3.483576
  H       4.395308     -0.007780      1.803242
  H      -4.640230      1.929353      0.370699
  H       1.994087     -1.592675     -1.687855
  H       2.059075     -0.252689     -2.357240
  O       1.503785     -1.009560     -2.259947
40
Coordinates from ORCA-job /home/rudenko/2025/kie/for_orca/c6h5chno2ch3_piperidine/orca/ts_opt/ts_opt E -843.639088646206
  C      -1.716173      2.476734     -1.290719
  C      -1.358882      1.148379     -1.524330
  C      -2.178415      0.114514     -1.103146
  C      -3.361452      0.421793     -0.416470
  C      -3.713553      1.739467     -0.173202
  C      -2.889797      2.775950     -0.614681
  H      -1.065982      3.272007     -1.633117
  H      -0.444743      0.930820     -2.066487
  H      -4.011968     -0.373522     -0.077764
  H      -3.165079      3.806818     -0.431603
  C      -1.810610     -1.303992     -1.420348
  C      -2.001407     -2.312651     -0.301140
  H      -1.633663     -3.290916     -0.614022
  H      -3.046083     -2.408283     -0.013843
  H      -1.436215     -2.007885      0.580699
  N      -2.661351     -1.733564     -2.642896
  O      -2.201177     -1.479230     -3.744532
  O      -3.752067     -2.241697     -2.457716
  N       1.194045      0.125510      0.841358
  C       1.896275     -1.107231      1.167918
  C       2.608611     -0.972746      2.513876
  C       3.571300      0.218916      2.500321
  C       2.841936      1.489099      2.043962
  C       2.124444      1.246962      0.718450
  H       1.568917      2.138043      0.417161
  H       2.884496      1.060978     -0.061418
  H       3.539407      2.323597      1.935974
  H       2.108560      1.780528      2.802704
  H       3.137736     -1.901345      2.742239
  H       1.857199     -0.821954      3.295679
  H       2.656800     -1.350696      0.402139
  H      -0.802814     -1.367587     -1.817663
  H       0.717683      0.004121     -0.045141
  H       1.179702     -1.931007      1.208972
  H       4.016916      0.362004      3.487685
  H       4.392826      0.011564      1.805852
  H      -4.630238      1.959998      0.358856
  H       2.006817     -1.590550     -1.708476
  H       2.069408     -0.216708     -2.381392
  O       1.508591     -0.996240     -2.283740
40
Coordinates from ORCA-job /home/rudenko/2025/kie/for_orca/c6h5chno2ch3_piperidine/orca/ts_opt/ts_opt E -843.639064913323
  C      -1.715339      2.469947     -1.281285
  C      -1.364838      1.143531     -1.531003
  C      -2.186581      0.106387     -1.106829
  C      -3.359453      0.410254     -0.404645
  C      -3.703463      1.728015     -0.147200
  C      -2.881386      2.765459     -0.590129
  H      -1.066595      3.267000     -1.622061
  H      -0.456468      0.927844     -2.080613
  H      -4.006487     -0.386782     -0.062741
  H      -3.151763      3.795576     -0.395698
  C      -1.823873     -1.315248     -1.437595
  C      -2.018143     -2.333828     -0.328610
  H      -1.653290     -3.312030     -0.643533
  H      -3.063902     -2.426834     -0.042984
  H      -1.449605     -2.027656      0.550084
  N      -2.676910     -1.728534     -2.663093
  O      -2.228597     -1.441991     -3.761576
  O      -3.780526     -2.208514     -2.479439
  N       1.207863      0.139519      0.837198
  C       1.904270     -1.096045      1.182460
  C       2.601903     -0.954373      2.534707
  C       3.565667      0.236221      2.521950
  C       2.852591      1.504280      2.037122
  C       2.149817      1.250467      0.705813
  H       1.607205      2.141747      0.383321
  H       2.918200      1.041237     -0.060143
  H       3.559977      2.330096      1.927448
  H       2.111040      1.812894      2.781098
  H       3.129473     -1.880680      2.774257
  H       1.842274     -0.798501      3.307740
  H       2.674234     -1.343462      0.428349
  H      -0.814610     -1.379308     -1.833671
  H       0.725144      0.007687     -0.045359
  H       1.185177     -1.917346      1.213040
  H       3.994198      0.391510      3.515096
  H       4.399405      0.017491      1.845608
  H      -4.612808      1.948200      0.397402
  H       2.004506     -1.615679     -1.720822
  H       2.073307     -0.245619     -2.403146
  O       1.508387     -1.022930     -2.300518
40
Coordinates from ORCA-job /home/rudenko/2025/kie/for_orca/c6h5chno2ch3_piperidine/orca/ts_opt/ts_opt E -843.639234326308
  C      -1.707817      2.477583     -1.295200
  C      -1.352926      1.150154     -1.528934
  C      -2.175960      0.113903     -1.104413
  C      -3.357285      0.420808     -0.418966
  C      -3.706787      1.740572     -0.176964
  C      -2.882508      2.776040     -0.619050
  H      -1.056820      3.272518     -1.636303
  H      -0.439056      0.931238     -2.066814
  H      -4.007690     -0.373990     -0.078150
  H      -3.157917      3.806829     -0.435443
  C      -1.805560     -1.310787     -1.416998
  C      -1.996813     -2.313788     -0.294817
  H      -1.637397     -3.296428     -0.602433
  H      -3.041318     -2.400336     -0.002243
  H      -1.424923     -2.002224      0.579421
  N      -2.657169     -1.742467     -2.635211
  O      -2.209738     -1.470983     -3.737869
  O      -3.755388     -2.231807     -2.444379
  N       1.187841      0.121285      0.838115
  C       1.896905     -1.112767      1.164961
  C       2.610007     -0.976666      2.509326
  C       3.565709      0.219467      2.496693
  C       2.831512      1.486880      2.045980
  C       2.113730      1.248989      0.720320
  H       1.551698      2.137711      0.425116
  H       2.872059      1.069284     -0.062868
  H       3.526713      2.323599      1.941218
  H       2.096216      1.771560      2.805605
  H       3.145125     -1.902053      2.735533
  H       1.858400     -0.832335      3.292438
  H       2.654634     -1.355748      0.398510
  H      -0.796774     -1.370787     -1.815519
  H       0.714575      0.001919     -0.050699
  H       1.181604     -1.936632      1.204231
  H       4.012676      0.362692      3.483490
  H       4.387003      0.017425      1.800117
  H      -4.623062      1.963314      0.354855
  H       2.008462     -1.584957     -1.709403
  H       2.068867     -0.208966     -2.379732
  O       1.509173     -0.990051     -2.283525
40
Coordinates from ORCA-job /home/rudenko/2025/kie/for_orca/c6h5chno2ch3_piperidine/orca/ts_opt/ts_opt E -843.639216652439
  C      -1.699578      2.487959     -1.312902
  C      -1.342124      1.159374     -1.529815
  C      -2.168017      0.122273     -1.104005
  C      -3.356627      0.434262     -0.434948
  C      -3.709595      1.756980     -0.209419
  C      -2.882379      2.789886     -0.651460
  H      -1.046003      3.280244     -1.655056
  H      -0.426030      0.937816     -2.056043
  H      -4.011161     -0.357037     -0.093998
  H      -3.162143      3.821479     -0.479200
  C      -1.790704     -1.310566     -1.399342
  C      -1.978508     -2.294558     -0.260936
  H      -1.628484     -3.284032     -0.557618
  H      -3.021152     -2.370244      0.041173
  H      -1.400686     -1.974070      0.605180
  N      -2.642215     -1.763583     -2.608375
  O      -2.198798     -1.505910     -3.716023
  O      -3.735637     -2.259887     -2.407975
  N       1.168717      0.098396      0.840661
  C       1.897807     -1.132539      1.151541
  C       2.626527     -1.000026      2.487198
  C       3.569154      0.204986      2.474675
  C       2.808488      1.468047      2.061475
  C       2.075569      1.247322      0.741437
  H       1.490774      2.131469      0.478174
  H       2.823428      1.104641     -0.060481
  H       3.487475      2.318821      1.964085
  H       2.079172      1.722840      2.837361
  H       3.172475     -1.922389      2.699639
  H       1.882789     -0.870366      3.280403
  H       2.643372     -1.369876      0.375918
  H      -0.781434     -1.366307     -1.803391
  H       0.703256     -0.006612     -0.059921
  H       1.189320     -1.960852      1.199130
  H       4.035739      0.336888      3.453920
  H       4.376863      0.024412      1.756563
  H      -4.632079      1.983554      0.309942
  H       2.011046     -1.555170     -1.712580
  H       2.064038     -0.169758     -2.366922
  O       1.507345     -0.957866     -2.278064
40
Coordinates from ORCA-job /home/rudenko/2025/kie/for_orca/c6h5chno2ch3_piperidine/orca/ts_opt/ts_opt E -843.639109192740
  C      -1.691538      2.494897     -1.327678
  C      -1.329373      1.165284     -1.527519
  C      -2.157414      0.129995     -1.101420
  C      -3.353744      0.445573     -0.448793
  C      -3.711783      1.769965     -0.239503
  C      -2.882375      2.800418     -0.681721
  H      -1.035898      3.285022     -1.670778
  H      -0.407781      0.939498     -2.042884
  H      -4.011674     -0.343191     -0.108521
  H      -3.166761      3.832762     -0.521910
  C      -1.773409     -1.305299     -1.380458
  C      -1.955225     -2.272609     -0.227431
  H      -1.612268     -3.267836     -0.513155
  H      -2.995932     -2.339611      0.083193
  H      -1.370289     -1.943388      0.630856
  N      -2.625607     -1.777246     -2.580749
  O      -2.186822     -1.530683     -3.692852
  O      -3.714653     -2.279615     -2.371336
  N       1.149193      0.075713      0.840936
  C       1.894301     -1.150067      1.134788
  C       2.637392     -1.022034      2.462634
  C       3.568682      0.191003      2.450691
  C       2.783689      1.449396      2.072293
  C       2.036923      1.242267      0.758313
  H       1.432213      2.121089      0.523080
  H       2.773781      1.133055     -0.059236
  H       3.446791      2.313317      1.981570
  H       2.060958      1.676800      2.862785
  H       3.191823     -1.942277      2.661919
  H       1.901376     -0.905067      3.265077
  H       2.630320     -1.381482      0.349708
  H      -0.765870     -1.358472     -1.787619
  H       0.694075     -0.015373     -0.066074
  H       1.191235     -1.983130      1.189705
  H       4.053411      0.312607      3.422385
  H       4.363213      0.030503      1.713267
  H      -4.640640      1.999256      0.267176
  H       2.014670     -1.527005     -1.707780
  H       2.058857     -0.136612     -2.346893
  O       1.506157     -0.927425     -2.266068
40
Coordinates from ORCA-job /home/rudenko/2025/kie/for_orca/c6h5chno2ch3_piperidine/orca/ts_opt/ts_opt E -843.638963700071
  C      -1.682024      2.503894     -1.342372
  C      -1.316815      1.173619     -1.527524
  C      -2.149195      0.138958     -1.101940
  C      -3.352265      0.458482     -0.465251
  C      -3.713057      1.784841     -0.270020
  C      -2.880336      2.812625     -0.711020
  H      -1.023681      3.291974     -1.684887
  H      -0.391548      0.944142     -2.030910
  H      -4.014279     -0.327470     -0.126334
  H      -3.168055      3.845638     -0.561792
  C      -1.759238     -1.301875     -1.363205
  C      -1.935610     -2.248617     -0.193189
  H      -1.605303     -3.251989     -0.464969
  H      -2.973267     -2.300570      0.130346
  H      -1.339183     -1.907661      0.651480
  N      -2.613154     -1.794695     -2.552376
  O      -2.176464     -1.569670     -3.669956
  O      -3.694197     -2.309490     -2.331233
  N       1.131497      0.051258      0.839691
  C       1.895733     -1.168952      1.117402
  C       2.652161     -1.045363      2.437716
  C       3.566853      0.179358      2.430359
  C       2.756607      1.430220      2.085932
  C       1.997935      1.236694      0.777276
  H       1.372051      2.108193      0.571403
  H       2.723468      1.163505     -0.054853
  H       3.402879      2.307657      2.004130
  H       2.039144      1.628622      2.889037
  H       3.219753     -1.960916      2.620646
  H       1.923688     -0.947826      3.249693
  H       2.622471     -1.393622      0.324329
  H      -0.752141     -1.352787     -1.774789
  H       0.686275     -0.024948     -0.074949
  H       1.200262     -2.007421      1.177591
  H       4.066698      0.292022      3.395425
  H       4.350580      0.042040      1.676702
  H      -4.647664      2.017305      0.224519
  H       2.019036     -1.498621     -1.710334
  H       2.055036     -0.101808     -2.332006
  O       1.505349     -0.896744     -2.259764
40
Coordinates from ORCA-job /home/rudenko/2025/kie/for_orca/c6h5chno2ch3_piperidine/orca/ts_opt/ts_opt E -843.638744970647
  C      -1.673230      2.507786     -1.354866
  C      -1.303478      1.176871     -1.524674
  C      -2.139464      0.145499     -1.099982
  C      -3.350312      0.467863     -0.480618
  C      -3.715522      1.795305     -0.300412
  C      -2.879211      2.820228     -0.739569
  H      -1.012465      3.294134     -1.696749
  H      -0.371512      0.942710     -2.016088
  H      -4.016140     -0.316038     -0.144456
  H      -3.170087      3.853992     -0.602107
  C      -1.743463     -1.295603     -1.344170
  C      -1.910670     -2.225185     -0.159231
  H      -1.587264     -3.234112     -0.418211
  H      -2.945106     -2.267803      0.175429
  H      -1.302717     -1.872674      0.672830
  N      -2.598553     -1.807196     -2.523309
  O      -2.169866     -1.589027     -3.645393
  O      -3.677584     -2.321774     -2.291584
  N       1.113544      0.030384      0.837946
  C       1.891427     -1.184091      1.095689
  C       2.660461     -1.066570      2.409436
  C       3.562460      0.167323      2.407794
  C       2.731319      1.412845      2.096095
  C       1.960654      1.231229      0.793611
  H       1.317653      2.095891      0.612144
  H       2.675489      1.187814     -0.048943
  H       3.363369      2.301281      2.022414
  H       2.020555      1.586398      2.910942
  H       3.237295     -1.979277      2.576918
  H       1.939416     -0.984572      3.229761
  H       2.610226     -1.401138      0.291490
  H      -0.738011     -1.345498     -1.756918
  H       0.679663     -0.033593     -0.080043
  H       1.202446     -2.028456      1.158887
  H       4.076258      0.270269      3.366583
  H       4.335586      0.050607      1.639719
  H      -4.656286      2.030336      0.181103
  H       2.024866     -1.472774     -1.699966
  H       2.052616     -0.073809     -2.307656
  O       1.505640     -0.869574     -2.243847
40
Coordinates from ORCA-job /home/rudenko/2025/kie/for_orca/c6h5chno2ch3_piperidine/orca/ts_opt/ts_opt E -843.638538146719
  C      -1.661914      2.516327     -1.368152
  C      -1.291555      1.184993     -1.527365
  C      -2.133875      0.154939     -1.104038
  C      -3.350230      0.481105     -0.499820
  C      -3.715769      1.810559     -0.330747
  C      -2.874416      2.832200     -0.766458
  H      -0.997512      3.300786     -1.707225
  H      -0.355470      0.946679     -2.006463
  H      -4.020506     -0.300117     -0.166163
  H      -3.166221      3.866733     -0.636888
  C      -1.732428     -1.291689     -1.327434
  C      -1.890472     -2.197861     -0.124184
  H      -1.583852     -3.215318     -0.369471
  H      -2.918896     -2.220799      0.230380
  H      -1.264287     -1.833425      0.687790
  N      -2.591206     -1.825128     -2.491885
  O      -2.162495     -1.640083     -3.620001
  O      -3.657796     -2.358288     -2.243935
  N       1.097983      0.007265      0.833186
  C       1.894731     -1.201618      1.074159
  C       2.674614     -1.090048      2.381708
  C       3.556006      0.157777      2.392339
  C       2.701868      1.393708      2.112170
  C       1.923410      1.225997      0.813233
  H       1.260183      2.080694      0.659390
  H       2.628123      1.218085     -0.038446
  H       3.318348      2.293898      2.050897
  H       1.994720      1.538812      2.935819
  H       3.268448     -1.995317      2.528542
  H       1.960740     -1.034608      3.210530
  H       2.605440     -1.410307      0.261462
  H      -0.727383     -1.340799     -1.744671
  H       0.673798     -0.042937     -0.091487
  H       1.214768     -2.052532      1.138661
  H       4.079198      0.252433      3.346902
  H       4.322368      0.066809      1.613941
  H      -4.661414      2.049249      0.139296
  H       2.029713     -1.446061     -1.706533
  H       2.048879     -0.041615     -2.297443
  O       1.504361     -0.840500     -2.241599
40
Coordinates from ORCA-job /home/rudenko/2025/kie/for_orca/c6h5chno2ch3_piperidine/orca/ts_opt/ts_opt E -843.638175746069
  C      -1.651273      2.516534     -1.378230
  C      -1.278193      1.184510     -1.524708
  C      -2.125505      0.159423     -1.103533
  C      -3.349476      0.488485     -0.517457
  C      -3.718275      1.818867     -0.362592
  C      -2.871181      2.836926     -0.793671
  H      -0.983514      3.299271     -1.714858
  H      -0.334709      0.941361     -1.991004
  H      -4.023909     -0.290862     -0.187898
  H      -3.164005      3.872441     -0.674687
  C      -1.718799     -1.285582     -1.308792
  C      -1.863475     -2.174104     -0.090329
  H      -1.562986     -3.196141     -0.323353
  H      -2.886696     -2.187823      0.279036
  H      -1.221516     -1.797656      0.704885
  N      -2.579186     -1.838401     -2.461329
  O      -2.165204     -1.651264     -3.594595
  O      -3.648679     -2.360225     -2.201310
  N       1.081988     -0.012031      0.829976
  C       1.891135     -1.214127      1.050372
  C       2.681247     -1.109462      2.352479
  C       3.549243      0.147558      2.371931
  C       2.675992      1.376936      2.122882
  C       1.887689      1.220310      0.829200
  H       1.208823      2.066414      0.696944
  H       2.583029      1.239844     -0.028904
  H       3.279375      2.286551      2.071254
  H       1.975563      1.498396      2.956112
  H       3.284869     -2.010753      2.483120
  H       1.974082     -1.070650      3.187911
  H       2.594864     -1.411771      0.226813
  H      -0.715509     -1.334708     -1.725825
  H       0.668901     -0.052177     -0.096931
  H       1.218917     -2.072420      1.113133
  H       4.083319      0.233163      3.321313
  H       4.306398      0.077892      1.582410
  H      -4.669899      2.060557      0.093677
  H       2.035692     -1.421793     -1.695285
  H       2.046713     -0.017541     -2.272905
  O       1.504147     -0.815948     -2.225253
40
Coordinates from ORCA-job /home/rudenko/2025/kie/for_orca/c6h5chno2ch3_piperidine/orca/ts_opt/ts_opt E -843.637971506470
  C      -1.636839      2.522762     -1.389962
  C      -1.266779      1.190052     -1.531145
  C      -2.120146      0.167738     -1.110569
  C      -3.347064      0.500675     -0.535438
  C      -3.713967      1.833160     -0.388586
  C      -2.861152      2.847353     -0.815915
  H      -0.964731      3.303415     -1.722676
  H      -0.318883      0.942550     -1.987062
  H      -4.024893     -0.276170     -0.206879
  H      -3.152182      3.883911     -0.701547
  C      -1.708925     -1.281457     -1.293751
  C      -1.837112     -2.145033     -0.055750
  H      -1.557525     -3.176085     -0.274059
  H      -2.850343     -2.133784      0.340441
  H      -1.167870     -1.756888      0.711260
  N      -2.577153     -1.855477     -2.426938
  O      -2.163805     -1.710005     -3.566627
  O      -3.629776     -2.400359     -2.144793
  N       1.067674     -0.031782      0.820460
  C       1.893076     -1.227894      1.026271
  C       2.688574     -1.131274      2.325176
  C       3.535779      0.138833      2.362943
  C       2.642929      1.357957      2.140635
  C       1.852482      1.215998      0.847156
  H       1.155116      2.050279      0.739069
  H       2.540791      1.269871     -0.014629
  H       3.232898      2.277045      2.104746
  H       1.943426      1.452322      2.978200
  H       3.309497     -2.023523      2.434612
  H       1.986617     -1.121336      3.165834
  H       2.593030     -1.415130      0.196760
  H      -0.707919     -1.330844     -1.716451
  H       0.663957     -0.060715     -0.112038
  H       1.228195     -2.092620      1.081880
  H       4.073340      0.216490      3.311069
  H       4.290164      0.095079      1.568906
  H      -4.668685      2.079068      0.058881
  H       2.038736     -1.397397     -1.712339
  H       2.039467      0.011883     -2.274323
  O       1.500001     -0.788670     -2.232820
40
Coordinates from ORCA-job /home/rudenko/2025/kie/for_orca/c6h5chno2ch3_piperidine/orca/ts_opt/ts_opt E -843.637554129462
  C      -1.620793      2.521682     -1.400203
  C      -1.252381      1.187765     -1.532728
  C      -2.111364      0.170927     -1.112448
  C      -3.343477      0.508382     -0.552279
  C      -3.710152      1.842457     -0.417516
  C      -2.850329      2.852059     -0.840231
  H      -0.944414      3.299794     -1.730321
  H      -0.299209      0.936158     -1.977682
  H      -4.025549     -0.265800     -0.226237
  H      -3.139619      3.889962     -0.733888
  C      -1.696409     -1.277954     -1.276203
  C      -1.804452     -2.120465     -0.021200
  H      -1.536649     -3.157087     -0.226665
  H      -2.807878     -2.093458      0.398320
  H      -1.111265     -1.721119      0.718892
  N      -2.570645     -1.873228     -2.391097
  O      -2.177680     -1.728906     -3.538076
  O      -3.624169     -2.407011     -2.090711
  N       1.052966     -0.050562      0.812222
  C       1.891781     -1.238812      1.001519
  C       2.691212     -1.149886      2.298144
  C       3.522451      0.130070      2.349798
  C       2.610917      1.339990      2.154805
  C       1.816100      1.210383      0.863118
  H       1.102127      2.033054      0.776431
  H       2.496987      1.295704     -0.001520
  H       3.187497      2.267968      2.132837
  H       1.914916      1.408896      2.997720
  H       3.323943     -2.035652      2.391652
  H       1.993476     -1.160137      3.142262
  H       2.588831     -1.411838      0.165773
  H      -0.697952     -1.327101     -1.702445
  H       0.659749     -0.070297     -0.123662
  H       1.234790     -2.110912      1.047688
  H       4.065814      0.199736      3.295222
  H       4.271001      0.109263      1.549391
  H      -4.669190      2.092841      0.018076
  H       2.041807     -1.372414     -1.720059
  H       2.031744      0.038343     -2.266787
  O       1.495467     -0.762796     -2.231911
40
Coordinates from ORCA-job /home/rudenko/2025/kie/for_orca/c6h5chno2ch3_piperidine/orca/ts_opt/ts_opt E -843.637130066011
  C      -1.603122      2.524226     -1.411186
  C      -1.239012      1.188816     -1.537921
  C      -2.104526      0.176486     -1.117254
  C      -3.339539      0.519795     -0.568389
  C      -3.703171      1.855970     -0.443125
  C      -2.836266      2.860692     -0.862293
  H      -0.921924      3.299287     -1.738553
  H      -0.282565      0.933788     -1.973704
  H      -4.025522     -0.251081     -0.242623
  H      -3.122371      3.900050     -0.761587
  C      -1.687065     -1.275125     -1.260149
  C      -1.775462     -2.092724      0.012825
  H      -1.526085     -3.136335     -0.179635
  H      -2.766024     -2.042804      0.460005
  H      -1.055814     -1.684685      0.720935
  N      -2.569076     -1.893028     -2.353460
  O      -2.186477     -1.774882     -3.506948
  O      -3.609925     -2.438625     -2.029984
  N       1.039901     -0.070281      0.800509
  C       1.895225     -1.251014      0.977205
  C       2.695312     -1.169356      2.273251
  C       3.506610      0.122066      2.342717
  C       2.575678      1.320146      2.172151
  C       1.779775      1.204261      0.880079
  H       1.047750      2.013064      0.816584
  H       2.453539      1.325700      0.014493
  H       3.137909      2.257111      2.167025
  H       1.880555      1.361609      3.017554
  H       3.343212     -2.045700      2.350043
  H       2.000757     -1.204877      3.119296
  H       2.591561     -1.409183      0.137947
  H      -0.690505     -1.324050     -1.693464
  H       0.656060     -0.079699     -0.140611
  H       1.247911     -2.130632      1.012462
  H       4.052607      0.184843      3.287098
  H       4.251917      0.126086      1.539075
  H      -4.664990      2.111649     -0.016847
  H       2.043487     -1.346382     -1.744803
  H       2.021099      0.069239     -2.273971
  O       1.488575     -0.734419     -2.244746
40
Coordinates from ORCA-job /home/rudenko/2025/kie/for_orca/c6h5chno2ch3_piperidine/orca/ts_opt/ts_opt E -843.636597468362
  C      -1.585977      2.524433     -1.421914
  C      -1.225036      1.187388     -1.540818
  C      -2.096404      0.180334     -1.119949
  C      -3.335366      0.529435     -0.584266
  C      -3.697081      1.867244     -0.470313
  C      -2.823091      2.867216     -0.885810
  H      -0.900167      3.296322     -1.747216
  H      -0.265107      0.929203     -1.967648
  H      -4.025422     -0.238362     -0.259576
  H      -3.106568      3.907989     -0.792507
  C      -1.676521     -1.272099     -1.242667
  C      -1.743620     -2.065035      0.047558
  H      -1.509551     -3.114495     -0.131648
  H      -2.720874     -1.994949      0.520516
  H      -0.998557     -1.648458      0.723811
  N      -2.565604     -1.912894     -2.314415
  O      -2.201071     -1.805744     -3.474790
  O      -3.600252     -2.457779     -1.969775
  N       1.027596     -0.090087      0.788723
  C       1.898057     -1.262040      0.951984
  C       2.697781     -1.187720      2.248243
  C       3.490885      0.113710      2.334898
  C       2.540936      1.299780      2.188350
  C       1.743467      1.196351      0.896344
  H       0.994470      1.991006      0.854752
  H       2.409808      1.353185      0.031074
  H       3.088323      2.245426      2.199824
  H       1.847447      1.314214      3.035953
  H       3.358373     -2.055702      2.310814
  H       2.005622     -1.245334      3.095019
  H       2.594632     -1.403334      0.109625
  H      -0.682713     -1.321178     -1.682132
  H       0.653560     -0.089756     -0.156039
  H       1.260559     -2.149582      0.975363
  H       4.039887      0.169547      3.277957
  H       4.232174      0.141477      1.528037
  H      -4.662317      2.127863     -0.054892
  H       2.045629     -1.320214     -1.767819
  H       2.010381      0.099173     -2.279102
  O       1.481712     -0.706533     -2.255550
40
Coordinates from ORCA-job /home/rudenko/2025/kie/for_orca/c6h5chno2ch3_piperidine/orca/ts_opt/ts_opt E -843.635996316245
  C      -1.569522      2.526078     -1.433475
  C      -1.212152      1.187411     -1.544987
  C      -2.088978      0.185040     -1.123438
  C      -3.330932      0.539912     -0.599069
  C      -3.690229      1.879323     -0.495615
  C      -2.809846      2.874827     -0.908556
  H      -0.879281      3.294706     -1.757134
  H      -0.249456      0.926354     -1.964351
  H      -4.024379     -0.224866     -0.274080
  H      -3.090681      3.916897     -0.821910
  C      -1.666470     -1.268765     -1.225595
  C      -1.711431     -2.035693      0.081593
  H      -1.494327     -3.091033     -0.083987
  H      -2.673943     -1.943301      0.580264
  H      -0.940767     -1.612288      0.724861
  N      -2.563578     -1.932438     -2.273903
  O      -2.215766     -1.841955     -3.440831
  O      -3.585690     -2.485791     -1.905583
  N       1.016992     -0.109816      0.774824
  C       1.902280     -1.272784      0.926785
  C       2.699376     -1.205959      2.224620
  C       3.473672      0.105044      2.330717
  C       2.505556      1.278341      2.205062
  C       1.708509      1.187473      0.911913
  H       0.942967      1.967139      0.891501
  H       2.367803      1.380463      0.048890
  H       3.038096      2.232028      2.234109
  H       1.812249      1.266167      3.052845
  H       3.372763     -2.064933      2.273922
  H       2.008463     -1.286606      3.070544
  H       2.600907     -1.397100      0.083245
  H      -0.676070     -1.318598     -1.672253
  H       0.652167     -0.099683     -0.173537
  H       1.274090     -2.167835      0.937823
  H       4.023305      0.154269      3.273755
  H       4.213000      0.156258      1.523174
  H      -4.658153      2.144766     -0.089608
  H       2.047154     -1.294391     -1.798638
  H       1.998473      0.129758     -2.291278
  O       1.473829     -0.678418     -2.272618
40
Coordinates from ORCA-job /home/rudenko/2025/kie/for_orca/c6h5chno2ch3_piperidine/orca/ts_opt/ts_opt E -843.635254319716
  C      -1.553780      2.527079     -1.445699
  C      -1.199402      1.186840     -1.548485
  C      -2.081382      0.189195     -1.125852
  C      -3.326039      0.549775     -0.612308
  C      -3.683171      1.890620     -0.519971
  C      -2.797060      2.881705     -0.931652
  H      -0.859490      3.292349     -1.768660
  H      -0.234428      0.923177     -1.961087
  H      -4.022133     -0.212048     -0.285587
  H      -3.075633      3.924970     -0.852311
  C      -1.656604     -1.265534     -1.207898
  C      -1.680223     -2.006793      0.114879
  H      -1.478760     -3.067292     -0.037014
  H      -2.628039     -1.892999      0.636779
  H      -0.886315     -1.577209      0.725231
  N      -2.560798     -1.951692     -2.232966
  O      -2.234313     -1.868822     -3.406621
  O      -3.569248     -2.514538     -1.841706
  N       1.008208     -0.129287      0.759808
  C       1.907565     -1.282821      0.901755
  C       2.700274     -1.223249      2.202272
  C       3.456152      0.096420      2.328237
  C       2.470833      1.256783      2.221100
  C       1.674834      1.177641      0.926525
  H       0.893330      1.941694      0.926103
  H       2.327090      1.406450      0.067228
  H       2.988767      2.217789      2.267318
  H       1.777413      1.219453      3.068075
  H       3.385526     -2.073396      2.240261
  H       2.009475     -1.325783      3.045935
  H       2.609314     -1.389607      0.058352
  H      -0.669614     -1.316304     -1.661654
  H       0.652219     -0.109804     -0.191817
  H       1.288713     -2.185254      0.900333
  H       4.005252      0.139365      3.271864
  H       4.194466      0.170090      1.521425
  H      -4.653452      2.160787     -0.122793
  H       2.048564     -1.268717     -1.832362
  H       1.986293      0.159716     -2.305555
  O       1.465593     -0.650747     -2.291479
40
Coordinates from ORCA-job /home/rudenko/2025/kie/for_orca/c6h5chno2ch3_piperidine/orca/ts_opt/ts_opt E -843.634407185242
  C      -1.539180      2.527941     -1.458135
  C      -1.187492      1.186216     -1.551336
  C      -2.074645      0.193097     -1.127363
  C      -3.321602      0.559528     -0.624099
  C      -3.676383      1.901750     -0.542842
  C      -2.785037      2.888378     -0.954269
  H      -0.841147      3.289744     -1.781214
  H      -0.220465      0.920247     -1.958500
  H      -4.020033     -0.199246     -0.294896
  H      -3.061580      3.932744     -0.882570
  C      -1.648715     -1.262824     -1.190186
  C      -1.653707     -1.979535      0.146529
  H      -1.467298     -3.044679      0.008588
  H      -2.587393     -1.844620      0.688528
  H      -0.839313     -1.544152      0.724408
  N      -2.558721     -1.970057     -2.193522
  O      -2.256882     -1.886898     -3.373825
  O      -3.546734     -2.552967     -1.779938
  N       1.002530     -0.147502      0.744144
  C       1.915105     -1.291935      0.878126
  C       2.701520     -1.239357      2.182449
  C       3.439501      0.087978      2.328552
  C       2.438635      1.235806      2.236766
  C       1.644481      1.167693      0.940318
  H       0.847693      1.915684      0.958688
  H       2.289649      1.431643      0.086031
  H       2.943068      2.203046      2.299138
  H       1.744618      1.175867      3.082001
  H       3.397929     -2.080785      2.211018
  H       2.009643     -1.362835      3.022434
  H       2.621156     -1.381625      0.036459
  H      -0.664911     -1.314418     -1.651030
  H       0.654301     -0.119254     -0.210624
  H       1.305429     -2.201297      0.863989
  H       3.986602      0.125085      3.273566
  H       4.178128      0.182672      1.524119
  H      -4.648685      2.176652     -0.153921
  H       2.049733     -1.243527     -1.870572
  H       1.973436      0.189134     -2.323475
  O       1.456765     -0.623394     -2.313535
40
Coordinates from ORCA-job /home/rudenko/2025/kie/for_orca/c6h5chno2ch3_piperidine/orca/ts_opt/ts_opt E -843.633528400349
  C      -1.526353      2.527723     -1.469753
  C      -1.176686      1.184671     -1.552458
  C      -2.069205      0.196026     -1.127463
  C      -3.318831      0.568230     -0.635578
  C      -3.671409      1.911657     -0.565552
  C      -2.774856      2.893848     -0.976432
  H      -0.824812      3.286079     -1.793342
  H      -0.207237      0.916852     -1.955758
  H      -4.020136     -0.187535     -0.305119
  H      -3.049714      3.939203     -0.912999
  C      -1.643713     -1.260906     -1.172627
  C      -1.633365     -1.955441      0.175982
  H      -1.460232     -3.024412      0.051572
  H      -2.554453     -1.801262      0.734146
  H      -0.801971     -1.514496      0.723839
  N      -2.558040     -1.986657     -2.157394
  O      -2.288035     -1.887864     -3.344337
  O      -3.518302     -2.600596     -1.723805
  N       1.000975     -0.163407      0.729429
  C       1.925064     -1.299540      0.857008
  C       2.703773     -1.253735      2.165948
  C       3.425721      0.079785      2.331192
  C       2.411634      1.216443      2.251774
  C       1.619577      1.158348      0.953331
  H       0.808812      1.890683      0.988745
  H       2.257593      1.455268      0.104831
  H       2.904469      2.188631      2.328314
  H       1.716971      1.137491      3.094976
  H       3.409690     -2.087437      2.187529
  H       2.009597     -1.395608      3.001130
  H       2.636224     -1.373032      0.018258
  H      -0.662855     -1.313067     -1.639825
  H       0.658978     -0.127438     -0.227852
  H       1.324020     -2.215068      0.830266
  H       3.969950      0.111407      3.278056
  H       4.165487      0.193190      1.530129
  H      -4.645977      2.191120     -0.185640
  H       2.050563     -1.219392     -1.910795
  H       1.959778      0.217138     -2.342962
  O       1.447306     -0.596898     -2.336762
40
Coordinates from ORCA-job /home/rudenko/2025/kie/for_orca/c6h5chno2ch3_piperidine/orca/ts_opt/ts_opt E -843.632738490493
  C      -1.516220      2.526861     -1.480214
  C      -1.167956      1.182751     -1.552337
  C      -2.065901      0.198098     -1.127029
  C      -3.318513      0.575642     -0.647428
  C      -3.669239      1.920078     -0.588357
  C      -2.767591      2.898159     -0.997865
  H      -0.811404      3.282021     -1.804160
  H      -0.196328      0.913954     -1.953392
  H      -4.023157     -0.177343     -0.317189
  H      -3.041185      3.944325     -0.942780
  C      -1.642292     -1.260029     -1.156203
  C      -1.620028     -1.935096      0.202199
  H      -1.458769     -3.007144      0.090218
  H      -2.530438     -1.763509      0.772653
  H      -0.774967     -1.489769      0.724383
  N      -2.560127     -2.000871     -2.125938
  O      -2.329828     -1.871908     -3.318518
  O      -3.483175     -2.658198     -1.675648
  N       1.004188     -0.176184      0.716696
  C       1.937599     -1.305416      0.839439
  C       2.707529     -1.266169      2.153582
  C       3.415982      0.071884      2.336556
  C       2.391527      1.199400      2.266389
  C       1.602016      1.150379      0.965742
  H       0.779027      1.868245      1.015958
  H       2.233542      1.476983      0.123692
  H       2.875304      2.175132      2.354861
  H       1.695918      1.105479      3.107325
  H       3.421043     -2.093503      2.170579
  H       2.009892     -1.423414      2.983122
  H       2.654472     -1.364484      0.004516
  H      -0.663914     -1.312696     -1.628745
  H       0.666335     -0.133907     -0.242309
  H       1.344053     -2.225953      0.800866
  H       3.956488      0.098325      3.285718
  H       4.157783      0.201156      1.539702
  H      -4.646383      2.203627     -0.218203
  H       2.050910     -1.197519     -1.952555
  H       1.946213      0.243113     -2.364215
  O       1.437595     -0.572501     -2.361110
40
Coordinates from ORCA-job /home/rudenko/2025/kie/for_orca/c6h5chno2ch3_piperidine/orca/ts_opt/ts_opt E -843.632145022047
  C      -1.509541      2.525448     -1.489597
  C      -1.161800      1.180591     -1.550990
  C      -2.065100      0.199297     -1.126248
  C      -3.320988      0.581481     -0.659590
  C      -3.670573      1.926662     -0.611443
  C      -2.764159      2.901165     -1.018896
  H      -0.801746      3.277823     -1.813555
  H      -0.188269      0.911485     -1.950925
  H      -4.029152     -0.169066     -0.330738
  H      -3.037086      3.947925     -0.972320
  C      -1.643970     -1.259905     -1.141434
  C      -1.613437     -1.918273      0.224761
  H      -1.461978     -2.992618      0.123847
  H      -2.515804     -1.731929      0.803354
  H      -0.758377     -1.469961      0.727086
  N      -2.564281     -2.012871     -2.099715
  O      -2.382012     -1.840634     -3.295241
  O      -3.442131     -2.721792     -1.638003
  N       1.011865     -0.185181      0.706879
  C       1.951861     -1.309227      0.825171
  C       2.712741     -1.276752      2.144705
  C       3.410729      0.064134      2.343951
  C       2.378865      1.185073      2.280815
  C       1.592259      1.144324      0.977863
  H       0.759163      1.849677      1.040179
  H       2.218912      1.496241      0.142875
  H       2.856373      2.162969      2.379116
  H       1.682070      1.080077      3.119475
  H       3.431680     -2.099447      2.158906
  H       2.010805     -1.446200      2.968207
  H       2.674494     -1.355781     -0.006103
  H      -0.667467     -1.313503     -1.617596
  H       0.676238     -0.138502     -0.252454
  H       1.364537     -2.233425      0.775858
  H       3.947096      0.085307      3.295605
  H       4.155132      0.206392      1.551683
  H      -4.650642      2.213614     -0.251787
  H       2.051279     -1.179077     -1.993261
  H       1.933876      0.265952     -2.385581
  O       1.428535     -0.551492     -2.384860
40
Coordinates from ORCA-job /home/rudenko/2025/kie/for_orca/c6h5chno2ch3_piperidine/orca/ts_opt/ts_opt E -843.631939144366
  C      -1.507642      2.523781     -1.498138
  C      -1.159866      1.178426     -1.549202
  C      -2.067728      0.199758     -1.125684
  C      -3.326455      0.586006     -0.670590
  C      -3.675393      1.931737     -0.632272
  C      -2.765153      2.903257     -1.038095
  H      -0.797266      3.273744     -1.822116
  H      -0.185322      0.909233     -1.949266
  H      -4.037875     -0.162376     -0.343268
  H      -3.037753      3.950443     -0.999438
  C      -1.649754     -1.260720     -1.129647
  C      -1.615594     -1.906249      0.242079
  H      -1.471326     -2.982091      0.150313
  H      -2.513713     -1.708701      0.823709
  H      -0.754974     -1.456718      0.733161
  N      -2.569895     -2.022937     -2.082211
  O      -2.439463     -1.798669     -3.275920
  O      -3.396327     -2.789308     -1.618228
  N       1.024537     -0.189348      0.700979
  C       1.967876     -1.310454      0.815853
  C       2.719756     -1.284817      2.140719
  C       3.410968      0.057106      2.354241
  C       2.375258      1.174724      2.295034
  C       1.592316      1.141356      0.989320
  H       0.752018      1.837524      1.059903
  H       2.217087      1.512543      0.161939
  H       2.849880      2.153275      2.400705
  H       1.676665      1.063226      3.131333
  H       3.441691     -2.104918      2.153939
  H       2.012701     -1.462832      2.958030
  H       2.696063     -1.347120     -0.011680
  H      -0.674218     -1.315936     -1.607817
  H       0.688264     -0.140958     -0.257873
  H       1.384977     -2.236721      0.757519
  H       3.942468      0.073086      3.308744
  H       4.158973      0.208641      1.567061
  H      -4.658107      2.221403     -0.282126
  H       2.050478     -1.165997     -2.033423
  H       1.922327      0.283596     -2.408590
  O       1.419520     -0.535995     -2.408995
40
Coordinates from ORCA-job /home/rudenko/2025/kie/for_orca/c6h5chno2ch3_piperidine/orca/ts_opt/ts_opt E -843.632122299079
  C      -1.509688      2.521776     -1.505410
  C      -1.161187      1.176092     -1.545722
  C      -2.073106      0.199579     -1.125022
  C      -3.334373      0.589549     -0.680257
  C      -3.683159      1.935571     -0.650969
  C      -2.769909      2.904589     -1.055789
  H      -0.796818      3.269582     -1.829013
  H      -0.186087      0.906834     -1.945622
  H      -4.048710     -0.156780     -0.354142
  H      -3.042421      3.952075     -1.024846
  C      -1.658749     -1.261935     -1.119399
  C      -1.625695     -1.897066      0.256518
  H      -1.485736     -2.973786      0.173170
  H      -2.523377     -1.691653      0.836427
  H      -0.763611     -1.446941      0.743931
  N      -2.575025     -2.032285     -2.072580
  O      -2.488412     -1.760728     -3.260581
  O      -3.354596     -2.849737     -1.615504
  N       1.041020     -0.189581      0.698606
  C       1.984611     -1.309254      0.808870
  C       2.728235     -1.291468      2.138873
  C       3.414916      0.050553      2.365572
  C       2.377990      1.167546      2.308630
  C       1.599298      1.140231      0.999847
  H       0.754160      1.830183      1.075138
  H       2.225708      1.524837      0.179514
  H       2.852496      2.145596      2.419635
  H       1.677300      1.053326      3.142736
  H       3.451818     -2.110142      2.151519
  H       2.015941     -1.476307      2.950130
  H       2.717971     -1.336635     -0.016414
  H      -0.682697     -1.319700     -1.596997
  H       0.703036     -0.141877     -0.256530
  H       1.405099     -2.236410      0.741778
  H       3.941274      0.061321      3.323023
  H       4.167013      0.208918      1.583619
  H      -4.668226      2.227368     -0.309291
  H       2.050172     -1.156889     -2.071577
  H       1.911995      0.297881     -2.430373
  O       1.411528     -0.524234     -2.431496
40
Coordinates from ORCA-job /home/rudenko/2025/kie/for_orca/c6h5chno2ch3_piperidine/orca/ts_opt/ts_opt E -843.632053373962
  C      -1.513782      2.523515     -1.498814
  C      -1.164734      1.178460     -1.553107
  C      -2.071680      0.199441     -1.129599
  C      -3.329335      0.584304     -0.670236
  C      -3.678421      1.929704     -0.627375
  C      -2.769795      2.901921     -1.033972
  H      -0.805031      3.274482     -1.824034
  H      -0.192349      0.909268     -1.955745
  H      -4.039689     -0.164965     -0.342752
  H      -3.042384      3.949005     -0.992283
  C      -1.655044     -1.261404     -1.138831
  C      -1.625247     -1.907962      0.232269
  H      -1.478907     -2.983422      0.139541
  H      -2.526198     -1.712485      0.810104
  H      -0.767857     -1.458855      0.728613
  N      -2.573305     -2.022381     -2.094441
  O      -2.461604     -1.773946     -3.285251
  O      -3.380428     -2.811940     -1.635048
  N       1.027216     -0.186748      0.705210
  C       1.970189     -1.309932      0.825992
  C       2.722976     -1.280575      2.149981
  C       3.420245      0.058643      2.358517
  C       2.387713      1.178628      2.295462
  C       1.603860      1.145286      0.990231
  H       0.766887      1.845613      1.058967
  H       2.228733      1.512191      0.165021
  H       2.864566      2.156423      2.398271
  H       1.689194      1.070484      3.132268
  H       3.441057     -2.104012      2.166095
  H       2.015696     -1.451552      2.968608
  H       2.698530     -1.353138      0.001552
  H      -0.677858     -1.318145     -1.614600
  H       0.684706     -0.139533     -0.259899
  H       1.384714     -2.234498      0.773521
  H       3.951689      0.075559      3.313026
  H       4.169045      0.205012      1.571123
  H      -4.660090      2.218426     -0.273535
  H       2.046356     -1.172408     -2.031557
  H       1.922254      0.275301     -2.412492
  O       1.418113     -0.543765     -2.410799
40
Coordinates from ORCA-job /home/rudenko/2025/kie/for_orca/c6h5chno2ch3_piperidine/orca/ts_opt/ts_opt E -843.631832870728
  C      -1.522997      2.527252     -1.493190
  C      -1.171338      1.183238     -1.560563
  C      -2.073130      0.199652     -1.135531
  C      -3.327655      0.578699     -0.661939
  C      -3.678517      1.922926     -0.606152
  C      -2.775326      2.899646     -1.014485
  H      -0.819228      3.282352     -1.819791
  H      -0.199947      0.915233     -1.967553
  H      -4.033503     -0.174127     -0.333233
  H      -3.049089      3.945960     -0.962774
  C      -1.654121     -1.260864     -1.158943
  C      -1.625158     -1.917058      0.208450
  H      -1.470303     -2.990900      0.108589
  H      -2.529248     -1.732142      0.784441
  H      -0.771496     -1.467052      0.712129
  N      -2.572243     -2.015925     -2.118081
  O      -2.436214     -1.789005     -3.310517
  O      -3.407105     -2.776839     -1.659095
  N       1.015650     -0.181874      0.712924
  C       1.955616     -1.309162      0.843452
  C       2.717545     -1.270618      2.161619
  C       3.428769      0.063681      2.352309
  C       2.402430      1.188517      2.283010
  C       1.613476      1.150259      0.981358
  H       0.785964      1.862254      1.043587
  H       2.238304      1.498601      0.151757
  H       2.882808      2.165538      2.376777
  H       1.706543      1.088095      3.123030
  H       3.427353     -2.101178      2.180895
  H       2.015040     -1.425388      2.987590
  H       2.681022     -1.369256      0.021568
  H      -0.676264     -1.316323     -1.630293
  H       0.667967     -0.134790     -0.258471
  H       1.362650     -2.230345      0.804900
  H       3.965022      0.085279      3.303963
  H       4.174838      0.196642      1.560017
  H      -4.657171      2.207348     -0.240670
  H       2.045731     -1.188618     -1.988877
  H       1.935769      0.253029     -2.393356
  O       1.427554     -0.562736     -2.388850
40
Coordinates from ORCA-job /home/rudenko/2025/kie/for_orca/c6h5chno2ch3_piperidine/orca/ts_opt/ts_opt E -843.631499484695
  C      -1.536786      2.531365     -1.489442
  C      -1.180123      1.189005     -1.568905
  C      -2.076272      0.200269     -1.142663
  C      -3.328113      0.572373     -0.655515
  C      -3.682459      1.914675     -0.587360
  C      -2.785786      2.896606     -0.997642
  H      -0.838994      3.291376     -1.817564
  H      -0.208998      0.922838     -1.980873
  H      -4.028775     -0.184803     -0.326017
  H      -3.061839      3.941812     -0.936957
  C      -1.655260     -1.259071     -1.179626
  C      -1.626186     -1.924346      0.184199
  H      -1.460399     -2.996183      0.077728
  H      -2.533481     -1.751557      0.758499
  H      -0.776832     -1.472255      0.694199
  N      -2.571785     -2.009282     -2.142395
  O      -2.410268     -1.805358     -3.335653
  O      -3.431575     -2.743246     -1.685152
  N       1.006438     -0.174556      0.723104
  C       1.941108     -1.307064      0.862352
  C       2.712535     -1.261771      2.174646
  C       3.440610      0.065634      2.347740
  C       2.422536      1.197333      2.271978
  C       1.628249      1.155514      0.974039
  H       0.811780      1.880601      1.029917
  H       2.253688      1.484239      0.139828
  H       2.907999      2.172798      2.355857
  H       1.729644      1.106418      3.115599
  H       3.411677     -2.101311      2.196282
  H       2.015181     -1.398726      3.008154
  H       2.664937     -1.385460      0.043098
  H      -0.676461     -1.312619     -1.645388
  H       0.651623     -0.127185     -0.252914
  H       1.339367     -2.223460      0.838334
  H       3.981330      0.090563      3.296706
  H       4.184503      0.183704      1.551133
  H      -4.658516      2.193630     -0.210901
  H       2.043125     -1.203777     -1.946196
  H       1.947271      0.231643     -2.375057
  O       1.435307     -0.580366     -2.367173
40
Coordinates from ORCA-job /home/rudenko/2025/kie/for_orca/c6h5chno2ch3_piperidine/orca/ts_opt/ts_opt E -843.631261040270
  C      -1.551360      2.535016     -1.485840
  C      -1.189710      1.194589     -1.577117
  C      -2.079830      0.200339     -1.149502
  C      -3.329088      0.565210     -0.649663
  C      -3.687301      1.905506     -0.569572
  C      -2.797181      2.892860     -0.981453
  H      -0.859526      3.299957     -1.815247
  H      -0.218820      0.932383     -1.996350
  H      -4.024447     -0.196499     -0.319661
  H      -3.075737      3.936843     -0.912185
  C      -1.656651     -1.257347     -1.199674
  C      -1.626364     -1.932008      0.160372
  H      -1.449206     -3.001580      0.047266
  H      -2.536352     -1.771668      0.733651
  H      -0.781086     -1.477513      0.675595
  N      -2.571243     -2.003332     -2.165711
  O      -2.387766     -1.819531     -3.358942
  O      -3.453968     -2.711185     -1.710892
  N       0.999147     -0.164624      0.734089
  C       1.925912     -1.303359      0.880507
  C       2.705699     -1.253616      2.187911
  C       3.451545      0.065874      2.344497
  C       2.444028      1.206351      2.261272
  C       1.645234      1.160878      0.966617
  H       0.840647      1.899605      1.015307
  H       2.272893      1.468549      0.127216
  H       2.936778      2.179089      2.334373
  H       1.753614      1.127753      3.108174
  H       3.393213     -2.102666      2.212045
  H       2.012920     -1.372799      3.027983
  H       2.648921     -1.399848      0.063365
  H      -0.676553     -1.308072     -1.659469
  H       0.637119     -0.117284     -0.242835
  H       1.315071     -2.214261      0.869901
  H       3.995749      0.093427      3.291341
  H       4.194060      0.167935      1.544491
  H      -4.660909      2.178733     -0.182722
  H       2.039707     -1.217876     -1.904811
  H       1.958055      0.211134     -2.358046
  O       1.442787     -0.596963     -2.346282
40
Coordinates from ORCA-job /home/rudenko/2025/kie/for_orca/c6h5chno2ch3_piperidine/orca/ts_opt/ts_opt E -843.631142136797
  C      -1.566454      2.537596     -1.482186
  C      -1.199348      1.199354     -1.585538
  C      -2.083363      0.199943     -1.156485
  C      -3.329628      0.557193     -0.643507
  C      -3.691967      1.895252     -0.551082
  C      -2.808823      2.887961     -0.964659
  H      -0.880838      3.307583     -1.812890
  H      -0.228925      0.942537     -2.013938
  H      -4.019311     -0.209273     -0.312911
  H      -3.089893      3.930630     -0.886590
  C      -1.658357     -1.255229     -1.219883
  C      -1.627164     -1.939061      0.136186
  H      -1.439079     -3.006217      0.016293
  H      -2.539416     -1.790830      0.708773
  H      -0.786208     -1.482565      0.655800
  N      -2.570227     -1.997723     -2.189236
  O      -2.364291     -1.835702     -3.381899
  O      -3.474043     -2.680678     -1.737695
  N       0.993756     -0.151869      0.746133
  C       1.910353     -1.298410      0.898672
  C       2.697416     -1.245733      2.202058
  C       3.461665      0.064968      2.343072
  C       2.466866      1.215982      2.251022
  C       1.664349      1.166814      0.959152
  H       0.872730      1.919888      0.999307
  H       2.295410      1.451475      0.114461
  H       2.969221      2.184644      2.312594
  H       1.778233      1.152430      3.100629
  H       3.372667     -2.104490      2.229162
  H       2.008604     -1.347231      3.047699
  H       2.632532     -1.413325      0.082625
  H      -0.676487     -1.302454     -1.673648
  H       0.623929     -0.105243     -0.229554
  H       1.290242     -2.202849      0.901274
  H       4.008331      0.094748      3.288410
  H       4.203598      0.149831      1.540610
  H      -4.662945      2.162474     -0.153595
  H       2.033226     -1.231229     -1.866736
  H       1.965879      0.191506     -2.344114
  O       1.447758     -0.612698     -2.327788
40
Coordinates from ORCA-job /home/rudenko/2025/kie/for_orca/c6h5chno2ch3_piperidine/orca/ts_opt/ts_opt E -843.631087350099
  C      -1.582688      2.536803     -1.478540
  C      -1.209161      1.200966     -1.595437
  C      -2.086129      0.198445     -1.165257
  C      -3.328562      0.547023     -0.636863
  C      -3.695662      1.882139     -0.530111
  C      -2.820419      2.879973     -0.945982
  H      -0.903952      3.312170     -1.810977
  H      -0.238938      0.948698     -2.032801
  H      -4.011456     -0.224944     -0.305444
  H      -3.103434      3.921328     -0.858208
  C      -1.661241     -1.251555     -1.242030
  C      -1.631506     -1.945017      0.110224
  H      -1.433614     -3.009852     -0.016241
  H      -2.546100     -1.807555      0.681292
  H      -0.794453     -1.488767      0.634548
  N      -2.569541     -1.988557     -2.216447
  O      -2.343406     -1.844029     -3.407691
  O      -3.491339     -2.650784     -1.770136
  N       0.990049     -0.136388      0.760496
  C       1.896117     -1.292328      0.918576
  C       2.689510     -1.236123      2.218755
  C       3.472837      0.064794      2.344498
  C       2.491741      1.227090      2.241285
  C       1.686707      1.173522      0.951577
  H       0.910167      1.942599      0.980002
  H       2.322398      1.431039      0.101766
  H       3.004840      2.190849      2.290610
  H       1.803961      1.180326      3.092640
  H       3.351319     -2.105158      2.249886
  H       2.004325     -1.318590      3.069352
  H       2.616829     -1.428631      0.102514
  H      -0.676622     -1.296189     -1.688572
  H       0.611293     -0.091964     -0.213387
  H       1.266162     -2.188933      0.934873
  H       4.020365      0.097324      3.289247
  H       4.215399      0.131026      1.540977
  H      -4.663302      2.142669     -0.120260
  H       2.020804     -1.244791     -1.831235
  H       1.968549      0.170956     -2.335069
  O       1.448153     -0.629585     -2.312430
40
Coordinates from ORCA-job /home/rudenko/2025/kie/for_orca/c6h5chno2ch3_piperidine/orca/ts_opt/ts_opt E -843.630899581571
  C      -1.567958      2.543204     -1.481496
  C      -1.197166      1.205805     -1.584195
  C      -2.083818      0.201377     -1.154156
  C      -3.329750      0.558044     -0.642358
  C      -3.693553      1.895501     -0.553406
  C      -2.813324      2.889766     -0.965949
  H      -0.883163      3.314107     -1.810729
  H      -0.229007      0.951179     -2.017568
  H      -4.020032     -0.207915     -0.310045
  H      -3.099879      3.931029     -0.888328
  C      -1.655337     -1.258959     -1.219976
  C      -1.622060     -1.941441      0.131458
  H      -1.440523     -3.008951      0.009807
  H      -2.535055     -1.791252      0.704285
  H      -0.784478     -1.480594      0.650792
  N      -2.570402     -2.004661     -2.191609
  O      -2.354846     -1.847714     -3.383284
  O      -3.480651     -2.680857     -1.744871
  N       0.989433     -0.150342      0.748915
  C       1.903630     -1.298490      0.904614
  C       2.695774     -1.246128      2.203620
  C       3.461360      0.062201      2.335552
  C       2.473008      1.215631      2.252212
  C       1.662374      1.164195      0.964190
  H       0.871123      1.917568      1.009709
  H       2.295780      1.451323      0.116041
  H       2.982209      2.180812      2.310263
  H       1.791765      1.159645      3.108423
  H       3.374998     -2.101384      2.235380
  H       2.006399     -1.347165      3.049163
  H       2.622396     -1.407267      0.085216
  H      -0.672855     -1.303800     -1.674733
  H       0.618554     -0.101874     -0.226682
  H       1.282477     -2.201517      0.912032
  H       4.021029      0.091283      3.273287
  H       4.192339      0.145011      1.522486
  H      -4.666279      2.161432     -0.159277
  H       2.033946     -1.232061     -1.858896
  H       1.972459      0.189288     -2.337940
  O       1.449086     -0.616029     -2.321949
40
Coordinates from ORCA-job /home/rudenko/2025/kie/for_orca/c6h5chno2ch3_piperidine/orca/ts_opt/ts_opt E -843.630685922587
  C      -1.552519      2.543563     -1.485728
  C      -1.182781      1.205049     -1.568628
  C      -2.075912      0.202584     -1.139532
  C      -3.325479      0.566307     -0.644322
  C      -3.687664      1.905674     -0.572832
  C      -2.803702      2.895637     -0.986472
  H      -0.862238      3.309395     -1.815187
  H      -0.216125      0.945342     -1.998400
  H      -4.021764     -0.194181     -0.311474
  H      -3.092998      3.937062     -0.922265
  C      -1.648048     -1.260991     -1.196921
  C      -1.615985     -1.938184      0.154507
  H      -1.441236     -3.007048      0.036768
  H      -2.531221     -1.783340      0.723800
  H      -0.783059     -1.472399      0.676381
  N      -2.568991     -2.008806     -2.167019
  O      -2.374985     -1.825065     -3.358763
  O      -3.458619     -2.709608     -1.718981
  N       0.989695     -0.162342      0.735411
  C       1.910974     -1.303448      0.886403
  C       2.699848     -1.255358      2.186865
  C       3.449485      0.060591      2.328767
  C       2.451047      1.205816      2.261130
  C       1.637499      1.156963      0.973719
  H       0.833345      1.895706      1.032737
  H       2.267409      1.472605      0.132251
  H       2.953742      2.173803      2.326835
  H       1.774349      1.140407      3.120417
  H       3.391933     -2.100019      2.218874
  H       2.005972     -1.372351      3.026880
  H       2.628789     -1.384207      0.063854
  H      -0.669003     -1.309157     -1.659863
  H       0.628259     -0.112854     -0.241397
  H       1.299915     -2.213278      0.883037
  H       4.017799      0.086061      3.261529
  H       4.171913      0.159292      1.509506
  H      -4.664662      2.176425     -0.192595
  H       2.047281     -1.222405     -1.888947
  H       1.970999      0.201518     -2.339523
  O       1.446743     -0.604758     -2.330824
40
Coordinates from ORCA-job /home/rudenko/2025/kie/for_orca/c6h5chno2ch3_piperidine/orca/ts_opt/ts_opt E -843.630693842186
  C      -1.537972      2.542038     -1.490095
  C      -1.169236      1.202882     -1.553766
  C      -2.067149      0.203320     -1.125230
  C      -3.319258      0.573137     -0.643040
  C      -3.680106      1.914205     -0.586900
  C      -2.793126      2.899807     -1.003799
  H      -0.843365      3.303061     -1.821581
  H      -0.203660      0.937396     -1.981047
  H      -4.020387     -0.182600     -0.309319
  H      -3.084045      3.941503     -0.952604
  C      -1.641704     -1.261766     -1.174864
  C      -1.613104     -1.936596      0.177002
  H      -1.439691     -3.005695      0.061375
  H      -2.532470     -1.781504      0.740265
  H      -0.786419     -1.466940      0.706234
  N      -2.567525     -2.008574     -2.144799
  O      -2.396822     -1.796226     -3.335525
  O      -3.435967     -2.734776     -1.697186
  N       0.992245     -0.171052      0.721273
  C       1.919575     -1.306518      0.867825
  C       2.702210     -1.262793      2.171754
  C       3.436932      0.060296      2.326059
  C       2.428600      1.197530      2.268501
  C       1.616205      1.152261      0.979418
  H       0.800502      1.877415      1.048502
  H       2.243269      1.493018      0.144589
  H       2.924451      2.168450      2.341976
  H       1.753010      1.122389      3.127918
  H       3.404434     -2.098907      2.203414
  H       2.003578     -1.394522      3.005788
  H       2.638246     -1.363487      0.044127
  H      -0.666274     -1.314795     -1.645483
  H       0.640658     -0.122982     -0.255509
  H       1.316919     -2.221496      0.851739
  H       4.008187      0.083067      3.257089
  H       4.155735      0.173311      1.505231
  H      -4.659966      2.189346     -0.217241
  H       2.060841     -1.216600     -1.923969
  H       1.968417      0.210187     -2.345258
  O       1.444231     -0.596792     -2.342865
40
Coordinates from ORCA-job /home/rudenko/2025/kie/for_orca/c6h5chno2ch3_piperidine/orca/ts_opt/ts_opt E -843.630559266996
  C      -1.522813      2.541976     -1.493783
  C      -1.156623      1.202451     -1.538089
  C      -2.058945      0.204493     -1.109252
  C      -3.313087      0.580612     -0.639412
  C      -3.671913      1.923812     -0.598999
  C      -2.781783      2.905138     -1.019929
  H      -0.823899      3.297947     -1.827722
  H      -0.192565      0.931643     -1.963018
  H      -4.019197     -0.169974     -0.304360
  H      -3.074106      3.947015     -0.981915
  C      -1.634276     -1.263698     -1.151645
  C      -1.607627     -1.939491      0.197858
  H      -1.428177     -3.007132      0.080230
  H      -2.532704     -1.792463      0.754559
  H      -0.790178     -1.463260      0.736279
  N      -2.564570     -2.008604     -2.122873
  O      -2.411331     -1.773660     -3.311902
  O      -3.417480     -2.753802     -1.677730
  N       0.993909     -0.176694      0.707631
  C       1.924834     -1.307983      0.850444
  C       2.701477     -1.270264      2.157326
  C       3.423051      0.059197      2.322505
  C       2.406931      1.190220      2.273284
  C       1.594966      1.149349      0.982713
  H       0.768417      1.861114      1.062133
  H       2.218243      1.514391      0.152972
  H       2.897978      2.163094      2.353065
  H       1.732229      1.107240      3.132663
  H       3.412228     -2.099084      2.188076
  H       1.998976     -1.415557      2.985981
  H       2.645581     -1.342784      0.026356
  H      -0.662952     -1.320425     -1.628845
  H       0.652657     -0.131168     -0.268405
  H       1.328557     -2.226628      0.823291
  H       3.996474      0.079784      3.252212
  H       4.139033      0.184266      1.500752
  H      -4.654084      2.203653     -0.239089
  H       2.074554     -1.212038     -1.959807
  H       1.966100      0.217912     -2.349907
  O       1.442112     -0.590597     -2.353646
40
Coordinates from ORCA-job /home/rudenko/2025/kie/for_orca/c6h5chno2ch3_piperidine/orca/ts_opt/ts_opt E -843.630601540380
  C      -1.508095      2.539085     -1.497344
  C      -1.143910      1.199369     -1.523828
  C      -2.049018      0.204568     -1.093740
  C      -3.303873      0.586292     -0.631870
  C      -3.660904      1.931022     -0.604502
  C      -2.769016      2.907792     -1.031807
  H      -0.806172      3.290370     -1.835403
  H      -0.181354      0.922707     -1.947406
  H      -4.013589     -0.159809     -0.294403
  H      -3.061830      3.949906     -1.005596
  C      -1.627800     -1.264868     -1.130985
  C      -1.607032     -1.943849      0.216487
  H      -1.418236     -3.009650      0.097505
  H      -2.540270     -1.806558      0.762332
  H      -0.801153     -1.462745      0.768882
  N      -2.562166     -2.004538     -2.105312
  O      -2.431547     -1.739893     -3.290941
  O      -3.394523     -2.775109     -1.664998
  N       0.996982     -0.179395      0.693149
  C       1.930347     -1.307202      0.833400
  C       2.698899     -1.274435      2.145086
  C       3.409065      0.060182      2.322063
  C       2.386033      1.185668      2.276953
  C       1.577476      1.148980      0.983443
  H       0.741636      1.849037      1.069904
  H       2.197639      1.534282      0.159537
  H       2.872563      2.160248      2.363489
  H       1.709564      1.095164      3.134110
  H       3.416056     -2.097660      2.175527
  H       1.992142     -1.430927      2.968137
  H       2.654003     -1.324526      0.010183
  H      -0.659504     -1.326292     -1.614374
  H       0.666235     -0.138901     -0.282311
  H       1.339025     -2.227983      0.793857
  H       3.980321      0.079255      3.253123
  H       4.126101      0.195378      1.502735
  H      -4.644088      2.215100     -0.250734
  H       2.087549     -1.212128     -1.999071
  H       1.962620      0.220811     -2.358087
  O       1.439823     -0.588749     -2.367189
40
Coordinates from ORCA-job /home/rudenko/2025/kie/for_orca/c6h5chno2ch3_piperidine/orca/ts_opt/ts_opt E -843.630478198325
  C      -1.492269      2.536291     -1.500913
  C      -1.131507      1.196400     -1.509738
  C      -2.038678      0.204415     -1.077081
  C      -3.293437      0.592054     -0.621280
  C      -3.648027      1.938536     -0.606987
  C      -2.754558      2.910604     -1.042184
  H      -0.787408      3.282599     -1.843730
  H      -0.170242      0.913904     -1.931964
  H      -4.006487     -0.149264     -0.280272
  H      -3.047432      3.952942     -1.027539
  C      -1.620163     -1.266826     -1.110033
  C      -1.604860     -1.950258      0.233875
  H      -1.401591     -3.012912      0.111794
  H      -2.547374     -1.827808      0.767477
  H      -0.813095     -1.463012      0.801542
  N      -2.557808     -2.001144     -2.088662
  O      -2.445646     -1.710842     -3.270261
  O      -3.374025     -2.792169     -1.654679
  N       0.998511     -0.179549      0.678856
  C       1.932571     -1.304670      0.816240
  C       2.693570     -1.278203      2.132224
  C       3.393419      0.060967      2.320487
  C       2.364813      1.182336      2.278892
  C       1.559382      1.150269      0.982639
  H       0.714594      1.838687      1.075945
  H       2.175842      1.554605      0.163753
  H       2.848085      2.157937      2.372026
  H       1.686261      1.085099      3.133585
  H       3.416321     -2.096562      2.161384
  H       1.983399     -1.445337      2.950260
  H       2.659199     -1.306072     -0.006455
  H      -0.655030     -1.332168     -1.598193
  H       0.679467     -0.145405     -0.295608
  H       1.344434     -2.226330      0.764783
  H       3.961604      0.078491      3.253457
  H       4.112394      0.205170      1.504329
  H      -4.631525      2.227248     -0.257868
  H       2.100108     -1.213533     -2.036830
  H       1.959040      0.222491     -2.364455
  O       1.438147     -0.588982     -2.378818
40
Coordinates from ORCA-job /home/rudenko/2025/kie/for_orca/c6h5chno2ch3_piperidine/orca/ts_opt/ts_opt E -843.630443312430
  C      -1.476934      2.532015     -1.503577
  C      -1.119085      1.191998     -1.497377
  C      -2.027356      0.203903     -1.061162
  C      -3.281073      0.596858     -0.608002
  C      -3.633317      1.944605     -0.604095
  C      -2.739222      2.911853     -1.048227
  H      -0.770260      3.273810     -1.852212
  H      -0.159759      0.903500     -1.918861
  H      -3.996414     -0.140340     -0.262917
  H      -3.031573      3.954444     -1.043449
  C      -1.613844     -1.268455     -1.091422
  C      -1.607460     -1.957515      0.249316
  H      -1.390076     -3.017184      0.125707
  H      -2.560064     -1.848697      0.767832
  H      -0.830673     -1.466804      0.834840
  N      -2.554635     -1.994819     -2.075398
  O      -2.459539     -1.679314     -3.252028
  O      -3.349611     -2.811908     -1.650362
  N       1.001128     -0.177465      0.663694
  C       1.935546     -1.300620      0.799795
  C       2.687321     -1.279323      2.121230
  C       3.377812      0.063469      2.321508
  C       2.344441      1.181217      2.280091
  C       1.544560      1.153798      0.979951
  H       0.691866      1.831834      1.077697
  H       2.158433      1.574207      0.166803
  H       2.824721      2.157547      2.380578
  H       1.661733      1.077523      3.130625
  H       3.414705     -2.093594      2.149821
  H       1.973181     -1.455672      2.933836
  H       2.665570     -1.290407     -0.022000
  H      -0.650585     -1.338213     -1.584147
  H       0.693566     -0.151352     -0.310361
  H       1.349745     -2.222234      0.735805
  H       3.939593      0.079810      3.258400
  H       4.101708      0.215358      1.511105
  H      -4.616245      2.237576     -0.256933
  H       2.111424     -1.218969     -2.078198
  H       1.954436      0.220441     -2.374442
  O       1.436237     -0.592883     -2.393464
40
Coordinates from ORCA-job /home/rudenko/2025/kie/for_orca/c6h5chno2ch3_piperidine/orca/ts_opt/ts_opt E -843.630347286120
  C      -1.461722      2.526928     -1.505271
  C      -1.106277      1.186883     -1.485990
  C      -2.014878      0.202943     -1.045265
  C      -3.267224      0.600497     -0.592940
  C      -3.617590      1.949150     -0.598171
  C      -2.723414      2.911826     -1.051608
  H      -0.754095      3.264726     -1.860265
  H      -0.149064      0.892340     -1.906674
  H      -3.984017     -0.133285     -0.243633
  H      -3.015112      3.954612     -1.055703
  C      -1.607223     -1.270367     -1.073696
  C      -1.611085     -1.965934      0.263704
  H      -1.380394     -3.022621      0.139105
  H      -2.573906     -1.869758      0.765586
  H      -0.849258     -1.474214      0.868278
  N      -2.550961     -1.987152     -2.063844
  O      -2.474405     -1.643788     -3.233922
  O      -3.326050     -2.828568     -1.649612
  N       1.003944     -0.173792      0.647998
  C       1.938188     -1.295303      0.783419
  C       2.679505     -1.278826      2.110848
  C       3.361490      0.066911      2.323220
  C       2.324056      1.181689      2.280020
  C       1.531223      1.158669      0.975360
  H       0.671191      1.827024      1.075676
  H       2.143578      1.592923      0.167996
  H       2.801519      2.158539      2.388359
  H       1.636018      1.071875      3.125415
  H       3.410645     -2.089777      2.139710
  H       1.960760     -1.462976      2.917585
  H       2.671973     -1.276402     -0.037678
  H      -0.645521     -1.344509     -1.569901
  H       0.708483     -0.156804     -0.325148
  H       1.353807     -2.216219      0.706215
  H       3.914874      0.082171      3.265155
  H       4.091997      0.225453      1.520074
  H      -4.599605      2.245949     -0.251667
  H       2.122625     -1.227089     -2.119728
  H       1.950433      0.215853     -2.384744
  O       1.435489     -0.599578     -2.408262
40
Coordinates from ORCA-job /home/rudenko/2025/kie/for_orca/c6h5chno2ch3_piperidine/orca/ts_opt/ts_opt E -843.630158119510
  C      -1.446446      2.521426     -1.505731
  C      -1.093446      1.181372     -1.475546
  C      -2.001816      0.201660     -1.029102
  C      -3.252242      0.603405     -0.575710
  C      -3.600713      1.952849     -0.588657
  C      -2.706843      2.911087     -1.051743
  H      -0.738494      3.255558     -1.867498
  H      -0.138534      0.880637     -1.895494
  H      -3.969840     -0.127425     -0.221909
  H      -2.997597      3.954086     -1.063396
  C      -1.600681     -1.272922     -1.056780
  C      -1.616484     -1.976154      0.276566
  H      -1.374598     -3.030090      0.150301
  H      -2.589263     -1.890790      0.760876
  H      -0.869330     -1.486501      0.900900
  N      -2.547102     -1.978394     -2.054047
  O      -2.487224     -1.607850     -3.216624
  O      -3.302520     -2.843677     -1.652804
  N       1.007143     -0.168342      0.631642
  C       1.940695     -1.288687      0.767516
  C       2.670214     -1.276702      2.101439
  C       3.344264      0.071442      2.325908
  C       2.303795      1.184075      2.278592
  C       1.519664      1.165052      0.968638
  H       0.652814      1.824437      1.069569
  H       2.131839      1.611021      0.167240
  H       2.778972      2.161074      2.395046
  H       1.609131      1.069060      3.117813
  H       3.404637     -2.084720      2.131560
  H       1.946129     -1.467713      2.901701
  H       2.678534     -1.263788     -0.053217
  H      -0.640062     -1.351183     -1.555708
  H       0.724125     -0.161568     -0.340268
  H       1.357048     -2.208266      0.676975
  H       3.887328      0.085824      3.273893
  H       4.082993      0.235444      1.531463
  H      -4.581342      2.253344     -0.241406
  H       2.133134     -1.237820     -2.162059
  H       1.946574      0.208797     -2.396082
  O       1.435544     -0.609059     -2.423855
40
Coordinates from ORCA-job /home/rudenko/2025/kie/for_orca/c6h5chno2ch3_piperidine/orca/ts_opt/ts_opt E -843.629863625242
  C      -1.431203      2.515142     -1.504823
  C      -1.080876      1.175009     -1.466032
  C      -1.988481      0.199727     -1.012698
  C      -3.236276      0.605447     -0.556071
  C      -3.582613      1.955666     -0.575037
  C      -2.689444      2.909491     -1.048232
  H      -0.723431      3.245845     -1.873715
  H      -0.128387      0.867870     -1.885232
  H      -3.954075     -0.122738     -0.197288
  H      -2.978780      3.952807     -1.065858
  C      -1.594459     -1.276246     -1.041244
  C      -1.624109     -1.988541      0.287113
  H      -1.373517     -3.040085      0.158388
  H      -2.606488     -1.912133      0.753162
  H      -0.891320     -1.504256      0.931924
  N      -2.542605     -1.968825     -2.047277
  O      -2.498179     -1.570339     -3.201091
  O      -3.279235     -2.857115     -1.661619
  N       1.010707     -0.161109      0.614915
  C       1.943080     -1.280786      0.752680
  C       2.659617     -1.272578      2.093512
  C       3.326529      0.077460      2.329539
  C       2.284130      1.188850      2.275748
  C       1.510233      1.173107      0.959778
  H       0.637307      1.824625      1.059069
  H       2.123889      1.628428      0.164703
  H       2.757621      2.165645      2.400182
  H       1.581752      1.069921      3.107946
  H       3.396698     -2.078166      2.126283
  H       1.929379     -1.469051      2.886730
  H       2.685086     -1.252413     -0.067955
  H      -0.634328     -1.358342     -1.542036
  H       0.740067     -0.165723     -0.355841
  H       1.359748     -2.198557      0.649324
  H       3.857715      0.091314      3.284297
  H       4.074716      0.245460      1.544894
  H      -4.561207      2.259886     -0.225289
  H       2.142417     -1.251621     -2.204673
  H       1.942406      0.198696     -2.408207
  O       1.435916     -0.621773     -2.439968
40
Coordinates from ORCA-job /home/rudenko/2025/kie/for_orca/c6h5chno2ch3_piperidine/orca/ts_opt/ts_opt E -843.629465111912
  C      -1.416258      2.508321     -1.502517
  C      -1.069104      1.167942     -1.457564
  C      -1.975535      0.197131     -0.996375
  C      -3.219816      0.606861     -0.534111
  C      -3.563481      1.957974     -0.557146
  C      -2.671374      2.907399     -1.040892
  H      -0.708998      3.235778     -1.878660
  H      -0.119068      0.854162     -1.875745
  H      -3.937325     -0.118759     -0.169675
  H      -2.958668      3.951208     -1.062621
  C      -1.588974     -1.280446     -1.027420
  C      -1.634315     -2.002905      0.295042
  H      -1.378109     -3.052632      0.163096
  H      -2.625672     -1.933055      0.742702
  H      -0.915102     -1.527214      0.960578
  N      -2.537256     -1.959147     -2.044305
  O      -2.506565     -1.532272     -3.188204
  O      -3.254910     -2.870655     -1.677331
  N       1.014585     -0.152194      0.598081
  C       1.945304     -1.271796      0.739235
  C       2.648038     -1.266463      2.087206
  C       3.308597      0.085082      2.333971
  C       2.265341      1.196084      2.271518
  C       1.503120      1.182767      0.948862
  H       0.625001      1.827784      1.044125
  H       2.120216      1.644963      0.160511
  H       2.737733      2.172375      2.403551
  H       1.554372      1.074656      3.096008
  H       3.387219     -2.070058      2.123980
  H       1.910996     -1.467023      2.872959
  H       2.691539     -1.242320     -0.081585
  H      -0.628685     -1.366128     -1.528969
  H       0.756020     -0.169316     -0.371547
  H       1.361843     -2.187379      0.623940
  H       3.826740      0.098857      3.295935
  H       4.067089      0.255605      1.559902
  H      -4.539226      2.266095     -0.202872
  H       2.150285     -1.268759     -2.246783
  H       1.937929      0.185420     -2.420687
  O       1.436473     -0.637943     -2.456194
40
Coordinates from ORCA-job /home/rudenko/2025/kie/for_orca/c6h5chno2ch3_piperidine/orca/ts_opt/ts_opt E -843.628985877172
  C      -1.402021      2.501068     -1.498797
  C      -1.058740      1.160199     -1.450260
  C      -1.963672      0.193780     -0.980583
  C      -3.203520      0.607691     -0.510363
  C      -3.543758      1.959899     -0.535243
  C      -2.652978      2.904984     -1.029704
  H      -0.695447      3.225450     -1.882048
  H      -0.111054      0.839541     -1.866899
  H      -3.920467     -0.115324     -0.139818
  H      -2.937482      3.949525     -1.053439
  C      -1.584752     -1.285517     -1.015847
  C      -1.647460     -2.018959      0.299887
  H      -1.388909     -3.067544      0.164080
  H      -2.647024     -1.953081      0.729477
  H      -0.940809     -1.554948      0.986106
  N      -2.531083     -1.950051     -2.045810
  O      -2.513231     -1.493887     -3.178486
  O      -3.228672     -2.885524     -1.700724
  N       1.018941     -0.141692      0.581582
  C       1.947514     -1.261846      0.727621
  C       2.636037     -1.258338      2.082751
  C       3.291154      0.094380      2.339160
  C       2.248051      1.205772      2.266127
  C       1.498855      1.193996      0.936175
  H       0.616668      1.834247      1.024880
  H       2.121610      1.660404      0.155034
  H       2.719834      2.181338      2.405231
  H       1.527840      1.083207      3.082379
  H       3.376680     -2.060434      2.124795
  H       1.891721     -1.461473      2.860823
  H       2.697981     -1.233518     -0.093566
  H      -0.623599     -1.374570     -1.516822
  H       0.771705     -0.172364     -0.387038
  H       1.363380     -2.174921      0.601609
  H       3.795479      0.108550      3.308500
  H       4.060419      0.265981      1.576124
  H      -4.515774      2.272140     -0.174376
  H       2.156565     -1.289354     -2.287491
  H       1.933034      0.168833     -2.432976
  O       1.436987     -0.657640     -2.472049
40
Coordinates from ORCA-job /home/rudenko/2025/kie/for_orca/c6h5chno2ch3_piperidine/orca/ts_opt/ts_opt E -843.628464639649
  C      -1.388949      2.493648     -1.493621
  C      -1.050387      1.151993     -1.444220
  C      -1.953679      0.189707     -0.965906
  C      -3.188263      0.608006     -0.485812
  C      -3.524184      1.961550     -0.510182
  C      -2.634807      2.902473     -1.014974
  H      -0.683058      3.215164     -1.883456
  H      -0.104777      0.824300     -1.858583
  H      -3.904617     -0.112319     -0.109096
  H      -2.915705      3.948008     -1.038498
  C      -1.582364     -1.291342     -1.006950
  C      -1.663775     -2.036272      0.301305
  H      -1.406434     -3.084500      0.161134
  H      -2.670558     -1.971519      0.713816
  H      -0.968278     -1.586829      1.007650
  N      -2.524543     -1.942260     -2.051730
  O      -2.519516     -1.456312     -3.171959
  O      -3.199899     -2.902705     -1.731204
  N       1.024094     -0.129651      0.565814
  C       1.950046     -1.251049      0.718074
  C       2.624329     -1.248379      2.080195
  C       3.274915      0.105216      2.345189
  C       2.232873      1.217640      2.259997
  C       1.498098      1.206704      0.922143
  H       0.613212      1.844261      1.001688
  H       2.128976      1.674516      0.148804
  H       2.704374      2.192341      2.405740
  H       1.502892      1.095027      3.067516
  H       3.365796     -2.049465      2.128492
  H       1.872467     -1.452721      2.850528
  H       2.704703     -1.225911     -0.103445
  H      -0.619572     -1.383541     -1.505845
  H       0.786969     -0.174722     -0.401887
  H       1.364625     -2.161355      0.582702
  H       3.764917      0.120138      3.321895
  H       4.055154      0.276668      1.593450
  H      -4.491658      2.278084     -0.140931
  H       2.161354     -1.313195     -2.326022
  H       1.927827      0.149173     -2.444647
  O       1.437403     -0.680571     -2.487164
40
Coordinates from ORCA-job /home/rudenko/2025/kie/for_orca/c6h5chno2ch3_piperidine/orca/ts_opt/ts_opt E -843.627949140142
  C      -1.377459      2.486225     -1.487079
  C      -1.044385      1.143501     -1.439492
  C      -1.946069      0.184979     -0.952812
  C      -3.174753      0.607758     -0.461507
  C      -3.505601      1.962806     -0.483256
  C      -2.617548      2.899873     -0.997494
  H      -0.672141      3.205158     -1.882675
  H      -0.100463      0.808746     -1.850710
  H      -3.890566     -0.109853     -0.078829
  H      -2.894132      3.946619     -1.018800
  C      -1.582118     -1.297629     -1.000859
  C      -1.683015     -2.054256      0.299283
  H      -1.430792     -3.102992      0.154387
  H      -2.695771     -1.987533      0.696579
  H      -0.996712     -1.621948      1.024448
  N      -2.518202     -1.935989     -2.061430
  O      -2.526974     -1.420197     -3.168053
  O      -3.169010     -2.921781     -1.767171
  N       1.030372     -0.116258      0.551048
  C       1.953365     -1.239582      0.710583
  C       2.613634     -1.236977      2.079399
  C       3.260396      0.117282      2.352174
  C       2.220115      1.231137      2.253635
  C       1.501315      1.220612      0.907244
  H       0.615304      1.857776      0.975010
  H       2.142940      1.686971      0.142436
  H       2.691349      2.204946      2.405876
  H       1.479874      1.109071      3.051847
  H       3.355393     -2.037442      2.134587
  H       1.854122     -1.441513      2.842013
  H       2.712119     -1.219192     -0.110871
  H      -0.616862     -1.392695     -1.496137
  H       0.801733     -0.176262     -0.415821
  H       1.366195     -2.146967      0.567102
  H       3.735750      0.133132      3.336124
  H       4.051617      0.287764      1.611902
  H      -4.467932      2.283639     -0.104391
  H       2.164771     -1.339667     -2.361689
  H       1.922466      0.126882     -2.455396
  O       1.437673     -0.706144     -2.501205
40
Coordinates from ORCA-job /home/rudenko/2025/kie/for_orca/c6h5chno2ch3_piperidine/orca/ts_opt/ts_opt E -843.627484619484
  C      -1.367834      2.478947     -1.479080
  C      -1.040733      1.134949     -1.435771
  C      -1.941015      0.179760     -0.941353
  C      -3.163523      0.606827     -0.438336
  C      -3.488914      1.963391     -0.455896
  C      -2.601952      2.897059     -0.978178
  H      -0.662946      3.195705     -1.879360
  H      -0.098023      0.793263     -1.842919
  H      -3.878869     -0.108193     -0.050221
  H      -2.873809      3.945119     -0.995765
  C      -1.583978     -1.303938     -0.997227
  C      -1.704605     -2.072123      0.294388
  H      -1.461521     -3.122147      0.144071
  H      -2.721855     -2.000143      0.679192
  H      -1.024872     -1.658912      1.036166
  N      -2.512382     -1.930840     -2.073905
  O      -2.535774     -1.386077     -3.166116
  O      -3.137467     -2.940927     -1.806483
  N       1.037996     -0.102051      0.537326
  C       1.957932     -1.227837      0.704975
  C       2.604519     -1.224736      2.080153
  C       3.247734      0.130161      2.360055
  C       2.209642      1.245519      2.247197
  C       1.508552      1.234967      0.891620
  H       0.623112      1.874081      0.945036
  H       2.163500      1.696941      0.135939
  H       2.680272      2.218552      2.405998
  H       1.458618      1.124176      3.035391
  H       3.346313     -2.024721      2.142594
  H       1.837416     -1.428980      2.835093
  H       2.720747     -1.212993     -0.115603
  H      -0.615445     -1.401495     -1.487453
  H       0.816070     -0.177019     -0.428583
  H       1.368848     -2.132309      0.554339
  H       3.708251      0.147114      3.351048
  H       4.049775      0.299247      1.631331
  H      -4.445904      2.288253     -0.067064
  H       2.167106     -1.367848     -2.394037
  H       1.917185      0.102711     -2.464783
  O       1.437833     -0.733455     -2.513780
40
Coordinates from ORCA-job /home/rudenko/2025/kie/for_orca/c6h5chno2ch3_piperidine/orca/ts_opt/ts_opt E -843.627111838425
  C      -1.360429      2.471836     -1.469559
  C      -1.039484      1.126457     -1.432584
  C      -1.938637      0.174178     -0.931335
  C      -3.155180      0.605059     -0.417064
  C      -3.475134      1.963003     -0.429481
  C      -2.588854      2.893833     -0.957969
  H      -0.655791      3.186905     -1.873288
  H      -0.097452      0.778129     -1.834762
  H      -3.870215     -0.107636     -0.024427
  H      -2.855884      3.943194     -0.970943
  C      -1.587955     -1.309971     -0.995650
  C      -1.728001     -2.089592      0.287171
  H      -1.497638     -3.141409      0.130316
  H      -2.748200     -2.009460      0.662604
  H      -1.051991     -1.697091      1.043079
  N      -2.507402     -1.925934     -2.088563
  O      -2.546005     -1.352995     -3.165535
  O      -3.106629     -2.958438     -1.848292
  N       1.047192     -0.087532      0.524988
  C       1.963954     -1.216134      0.701263
  C       2.597368     -1.212077      2.082436
  C       3.237292      0.143497      2.368717
  C       2.201795      1.260393      2.240731
  C       1.520073      1.249118      0.875474
  H       0.637103      1.892619      0.912019
  H       2.190759      1.703451      0.129335
  H       2.671440      2.232806      2.406031
  H       1.439522      1.139950      3.018199
  H       3.338993     -2.011673      2.152310
  H       1.822918     -1.415676      2.829898
  H       2.730882     -1.207066     -0.117547
  H      -0.615514     -1.409558     -1.479570
  H       0.830000     -0.177040     -0.439706
  H       1.372912     -2.117804      0.544331
  H       3.683044      0.161778      3.366435
  H       4.049820      0.310805      1.651431
  H      -4.427050      2.291371     -0.031252
  H       2.168487     -1.396910     -2.422537
  H       1.912087      0.077322     -2.472284
  O       1.437807     -0.761706     -2.524421
40
Coordinates from ORCA-job /home/rudenko/2025/kie/for_orca/c6h5chno2ch3_piperidine/orca/ts_opt/ts_opt E -843.626853319463
  C      -1.355745      2.464951     -1.458576
  C      -1.041041      1.118148     -1.429576
  C      -1.939371      0.168286     -0.922788
  C      -3.150586      0.602378     -0.398497
  C      -3.465279      1.961547     -0.405081
  C      -2.579058      2.890169     -0.937561
  H      -0.651033      3.178822     -1.864302
  H      -0.099107      0.763657     -1.825861
  H      -3.865726     -0.108302     -0.002757
  H      -2.841288      3.940777     -0.945300
  C      -1.594446     -1.315822     -0.996093
  C      -1.752876     -2.106788      0.277822
  H      -1.538096     -3.160556      0.113032
  H      -2.774474     -2.016251      0.647180
  H      -1.077774     -1.736619      1.045486
  N      -2.503914     -1.920808     -2.105408
  O      -2.559351     -1.319249     -3.165592
  O      -3.075784     -2.974900     -1.893752
  N       1.058199     -0.072857      0.514808
  C       1.971228     -1.204543      0.699724
  C       2.592326     -1.199130      2.086447
  C       3.229791      0.156978      2.378096
  C       2.197670      1.275843      2.234295
  C       1.536599      1.262808      0.859168
  H       0.658358      1.913349      0.876286
  H       2.225352      1.705534      0.122810
  H       2.666411      2.247652      2.405581
  H       1.423846      1.157012      3.000519
  H       3.333307     -1.998691      2.163765
  H       1.810945     -1.401402      2.826912
  H       2.742349     -1.201385     -0.116768
  H      -0.617769     -1.417001     -1.472631
  H       0.843428     -0.176181     -0.448252
  H       1.377948     -2.103445      0.537574
  H       3.661175      0.176812      3.382091
  H       4.052372      0.321736      1.671902
  H      -4.412709      2.292788      0.001368
  H       2.169069     -1.426252     -2.446233
  H       1.907390      0.051282     -2.477276
  O       1.437664     -0.790348     -2.532566
40
Coordinates from ORCA-job /home/rudenko/2025/kie/for_orca/c6h5chno2ch3_piperidine/orca/ts_opt/ts_opt E -843.626682306202
  C      -1.354062      2.458267     -1.446330
  C      -1.045653      1.110056     -1.426772
  C      -1.943226      0.161930     -0.916082
  C      -3.149748      0.598487     -0.382776
  C      -3.459460      1.958744     -0.382630
  C      -2.572858      2.885920     -0.917005
  H      -0.648886      3.171476     -1.852442
  H      -0.103178      0.749991     -1.816018
  H      -3.865313     -0.110554      0.014747
  H      -2.830356      3.937709     -0.918646
  C      -1.603447     -1.321809     -0.998857
  C      -1.778967     -2.123567      0.266241
  H      -1.581880     -3.178995      0.091205
  H      -2.800442     -2.020583      0.632796
  H      -1.101725     -1.777589      1.043202
  N      -2.502037     -1.916230     -2.124517
  O      -2.577576     -1.285358     -3.165926
  O      -3.045486     -2.990645     -1.942336
  N       1.071151     -0.057519      0.507125
  C       1.979067     -1.192759      0.700121
  C       2.588692     -1.185848      2.092039
  C       3.225230      0.170353      2.388290
  C       2.197814      1.292249      2.227896
  C       1.558820      1.276370      0.842740
  H       0.687951      1.936735      0.837347
  H       2.268300      1.702763      0.116735
  H       2.666298      2.263213      2.404596
  H       1.412022      1.176243      2.982265
  H       3.328119     -1.986141      2.176728
  H       1.800692     -1.385661      2.826008
  H       2.754570     -1.195887     -0.114204
  H      -0.622595     -1.424236     -1.467312
  H       0.856530     -0.173988     -0.453565
  H       1.382667     -2.088615      0.534041
  H       3.642465      0.191749      3.398220
  H       4.057728      0.331370      1.693070
  H      -4.402941      2.292132      0.031169
  H       2.169777     -1.455527     -2.464411
  H       1.903755      0.024899     -2.478976
  O       1.438188     -0.819144     -2.537777
40
Coordinates from ORCA-job /home/rudenko/2025/kie/for_orca/c6h5chno2ch3_piperidine/orca/ts_opt/ts_opt E -843.626562819702
  C      -1.358651      2.451094     -1.435279
  C      -1.054116      1.101951     -1.425219
  C      -1.949722      0.155613     -0.909996
  C      -3.150841      0.592970     -0.364949
  C      -3.457256      1.953662     -0.357595
  C      -2.572571      2.879969     -0.896057
  H      -0.654620      3.164626     -1.842830
  H      -0.109449      0.734939     -1.807496
  H      -3.865282     -0.115090      0.035855
  H      -2.826314      3.932654     -0.891467
  C      -1.613799     -1.324838     -1.002836
  C      -1.803242     -2.134316      0.254201
  H      -1.627182     -3.191041      0.066165
  H      -2.820682     -2.017514      0.627801
  H      -1.116744     -1.809643      1.032158
  N      -2.499190     -1.911542     -2.145420
  O      -2.583562     -1.261595     -3.173901
  O      -3.023538     -2.999071     -1.986461
  N       1.087243     -0.038066      0.498518
  C       1.987475     -1.180361      0.697834
  C       2.583343     -1.173962      2.096150
  C       3.219648      0.181915      2.401533
  C       2.198549      1.308053      2.222184
  C       1.589361      1.290614      0.824337
  H       0.729527      1.964116      0.789401
  H       2.322739      1.696817      0.110788
  H       2.665596      2.277970      2.408202
  H       1.397468      1.193103      2.960424
  H       3.320499     -1.975594      2.188084
  H       1.787360     -1.371878      2.821810
  H       2.767820     -1.189991     -0.114185
  H      -0.629692     -1.429992     -1.463635
  H       0.871385     -0.169248     -0.458872
  H       1.386575     -2.073051      0.526005
  H       3.618675      0.202855      3.418808
  H       4.064843      0.339579      1.721175
  H      -4.396294      2.288120      0.065340
  H       2.170821     -1.486783     -2.476593
  H       1.902647     -0.005664     -2.475685
  O       1.441176     -0.851381     -2.538299
40
Coordinates from ORCA-job /home/rudenko/2025/kie/for_orca/c6h5chno2ch3_piperidine/orca/ts_opt/ts_opt E -843.626632934488
  C      -1.352175      2.459663     -1.448783
  C      -1.045660      1.110688     -1.427354
  C      -1.942562      0.162514     -0.914254
  C      -3.146452      0.601664     -0.376980
  C      -3.454239      1.962586     -0.376490
  C      -2.567967      2.889400     -0.914023
  H      -0.647542      3.170151     -1.860450
  H      -0.104928      0.751411     -1.815644
  H      -3.861245     -0.107781      0.022124
  H      -2.825533      3.941177     -0.915875
  C      -1.605099     -1.328744     -0.999681
  C      -1.784573     -2.134450      0.262416
  H      -1.594572     -3.191417      0.087356
  H      -2.806846     -2.023529      0.625272
  H      -1.104420     -1.794229      1.037730
  N      -2.500563     -1.918939     -2.124422
  O      -2.580138     -1.279520     -3.161044
  O      -3.038995     -2.996981     -1.950919
  N       1.072111     -0.062937      0.506215
  C       1.980914     -1.191375      0.699846
  C       2.587013     -1.180032      2.093276
  C       3.226232      0.175181      2.389666
  C       2.196586      1.295747      2.229775
  C       1.557525      1.274902      0.843588
  H       0.687046      1.935262      0.836180
  H       2.270036      1.698199      0.120082
  H       2.662983      2.268834      2.400237
  H       1.415776      1.181031      2.989683
  H       3.321831     -1.983720      2.184399
  H       1.794334     -1.374218      2.824160
  H       2.756968     -1.195707     -0.112281
  H      -0.623003     -1.429960     -1.468251
  H       0.855150     -0.176628     -0.456629
  H       1.387607     -2.089867      0.534634
  H       3.645372      0.194895      3.398834
  H       4.057912      0.337922      1.693542
  H      -4.396488      2.296938      0.039339
  H       2.172543     -1.457551     -2.470068
  H       1.899602      0.027001     -2.482102
  O       1.435459     -0.817579     -2.543103
40
Coordinates from ORCA-job /home/rudenko/2025/kie/for_orca/c6h5chno2ch3_piperidine/orca/ts_opt/ts_opt E -843.626543082370
  C      -1.345972      2.465013     -1.463168
  C      -1.033412      1.117102     -1.427886
  C      -1.927881      0.168535     -0.913666
  C      -3.133613      0.607926     -0.379883
  C      -3.446240      1.967513     -0.388330
  C      -2.563655      2.894417     -0.933048
  H      -0.642858      3.173334     -1.881026
  H      -0.094686      0.764383     -1.823228
  H      -3.845943     -0.103212      0.021061
  H      -2.826669      3.944771     -0.943355
  C      -1.592694     -1.327638     -0.996878
  C      -1.764948     -2.127074      0.271437
  H      -1.558420     -3.183079      0.109920
  H      -2.791838     -2.025107      0.623872
  H      -1.092251     -1.768031      1.044907
  N      -2.497526     -1.917662     -2.108308
  O      -2.574817     -1.285866     -3.150777
  O      -3.054196     -2.983809     -1.921253
  N       1.053701     -0.089493      0.510710
  C       1.973555     -1.205743      0.702014
  C       2.590627     -1.187683      2.090468
  C       3.227949      0.169730      2.376089
  C       2.186906      1.281779      2.231922
  C       1.520267      1.255757      0.857726
  H       0.639083      1.901004      0.876512
  H       2.210693      1.696616      0.123795
  H       2.648579      2.259817      2.386634
  H       1.425465      1.166140      3.010996
  H       3.325263     -1.991622      2.180685
  H       1.802520     -1.379052      2.827327
  H       2.746549     -1.205018     -0.109366
  H      -0.614353     -1.426853     -1.474245
  H       0.837427     -0.185634     -0.456393
  H       1.390051     -2.112764      0.544889
  H       3.664475      0.191466      3.377734
  H       4.046656      0.338380      1.666061
  H      -4.390269      2.300682      0.024379
  H       2.170939     -1.427602     -2.456399
  H       1.899860      0.056080     -2.487148
  O       1.431676     -0.787501     -2.544780
40
Coordinates from ORCA-job /home/rudenko/2025/kie/for_orca/c6h5chno2ch3_piperidine/orca/ts_opt/ts_opt E -843.626586476470
  C      -1.342299      2.470547     -1.477459
  C      -1.022296      1.124167     -1.429429
  C      -1.914014      0.175284     -0.913219
  C      -3.121577      0.614093     -0.381747
  C      -3.439655      1.971904     -0.398483
  C      -2.561513      2.898916     -0.950979
  H      -0.641606      3.177699     -1.901315
  H      -0.083285      0.776797     -1.832367
  H      -3.830928     -0.098346      0.022175
  H      -2.830141      3.947716     -0.969916
  C      -1.580530     -1.322553     -0.994172
  C      -1.744428     -2.113328      0.281285
  H      -1.523150     -3.168343      0.132715
  H      -2.773637     -2.020048      0.628819
  H      -1.076937     -1.733446      1.049049
  N      -2.494801     -1.914582     -2.093079
  O      -2.564887     -1.296948     -3.145110
  O      -3.066406     -2.969756     -1.890191
  N       1.036216     -0.116339      0.514620
  C       1.968029     -1.222197      0.703782
  C       2.595756     -1.197132      2.087306
  C       3.227698      0.164219      2.363629
  C       2.174677      1.266067      2.232836
  C       1.484497      1.234254      0.869762
  H       0.593318      1.864285      0.911330
  H       2.152467      1.691893      0.125399
  H       2.629269      2.249473      2.374751
  H       1.429629      1.147207      3.027019
  H       3.333017     -1.998828      2.174805
  H       1.813615     -1.389210      2.830564
  H       2.738489     -1.216854     -0.105945
  H      -0.606388     -1.420984     -1.480464
  H       0.819756     -0.194957     -0.456589
  H       1.395068     -2.137593      0.554534
  H       3.678208      0.189300      3.358928
  H       4.035024      0.339719      1.642298
  H      -4.385064      2.303570      0.012287
  H       2.167575     -1.398602     -2.439431
  H       1.902010      0.082750     -2.492479
  O       1.429225     -0.759812     -2.545518
40
Coordinates from ORCA-job /home/rudenko/2025/kie/for_orca/c6h5chno2ch3_piperidine/orca/ts_opt/ts_opt E -843.626621708582
  C      -1.340491      2.476938     -1.490892
  C      -1.013099      1.132217     -1.431941
  C      -1.902718      0.182626     -0.914466
  C      -3.112653      0.620459     -0.386133
  C      -3.436022      1.976478     -0.410146
  C      -2.561475      2.903847     -0.968460
  H      -0.642156      3.183701     -1.919336
  H      -0.073117      0.790151     -1.841695
  H      -3.819581     -0.093006      0.020113
  H      -2.835171      3.951154     -0.995370
  C      -1.569394     -1.315413     -0.991778
  C      -1.722637     -2.096112      0.291536
  H      -1.486301     -3.149644      0.155514
  H      -2.752806     -2.012883      0.638184
  H      -1.058709     -1.693607      1.050777
  N      -2.492338     -1.912651     -2.078467
  O      -2.558275     -1.310030     -3.139739
  O      -3.077067     -2.957038     -1.857656
  N       1.019936     -0.143601      0.519254
  C       1.963546     -1.239697      0.704891
  C       2.602171     -1.207451      2.083415
  C       3.227479      0.158419      2.351539
  C       2.162519      1.249545      2.233697
  C       1.451332      1.211335      0.881331
  H       0.551217      1.826951      0.942661
  H       2.096979      1.684230      0.126728
  H       2.608849      2.238260      2.365325
  H       1.431895      1.125689      3.040329
  H       3.343514     -2.005701      2.166626
  H       1.827266     -1.402049      2.833732
  H       2.731732     -1.229952     -0.103454
  H      -0.599590     -1.413771     -1.486021
  H       0.802204     -0.204492     -0.455020
  H       1.401015     -2.163201      0.563518
  H       3.690291      0.187087      3.341047
  H       4.024126      0.341059      1.620191
  H      -4.383030      2.306483     -0.001718
  H       2.165040     -1.370903     -2.417834
  H       1.906583      0.108151     -2.496238
  O       1.428937     -0.733580     -2.544044
40
Coordinates from ORCA-job /home/rudenko/2025/kie/for_orca/c6h5chno2ch3_piperidine/orca/ts_opt/ts_opt E -843.626632314859
  C      -1.340316      2.484371     -1.503278
  C      -1.006595      1.141133     -1.435729
  C      -1.894616      0.190367     -0.918144
  C      -3.107000      0.627153     -0.393197
  C      -3.434969      1.981612     -0.422794
  C      -2.563015      2.909692     -0.984733
  H      -0.643937      3.191203     -1.934882
  H      -0.065647      0.804826     -1.851897
  H      -3.812165     -0.087240      0.014437
  H      -2.840828      3.955729     -1.018075
  C      -1.560696     -1.307695     -0.991063
  C      -1.701943     -2.077815      0.300331
  H      -1.449811     -3.129386      0.177326
  H      -2.732547     -2.006093      0.647774
  H      -1.041615     -1.652510      1.050213
  N      -2.491855     -1.912494     -2.065267
  O      -2.557116     -1.324567     -3.134885
  O      -3.084250     -2.948844     -1.827071
  N       1.005389     -0.171111      0.525476
  C       1.960548     -1.257496      0.707644
  C       2.610454     -1.217555      2.080884
  C       3.228889      0.152937      2.340483
  C       2.152608      1.233402      2.234752
  C       1.421823      1.187799      0.892940
  H       0.513993      1.790137      0.971880
  H       2.045320      1.673672      0.127830
  H       2.590494      2.227142      2.357080
  H       1.435272      1.104238      3.052327
  H       3.356643     -2.011704      2.158975
  H       1.843818     -1.415296      2.838932
  H       2.726797     -1.244196     -0.099069
  H      -0.595067     -1.406170     -1.492746
  H       0.784311     -0.214112     -0.451801
  H       1.408041     -2.188608      0.574667
  H       3.703130      0.185702      3.324413
  H       4.015244      0.342050      1.599741
  H      -4.383613      2.309901     -0.016792
  H       2.162834     -1.344721     -2.394120
  H       1.912105      0.132761     -2.500173
  O       1.429890     -0.708214     -2.542388
40
Coordinates from ORCA-job /home/rudenko/2025/kie/for_orca/c6h5chno2ch3_piperidine/orca/ts_opt/ts_opt E -843.626599503529
  C      -1.342122      2.492264     -1.513831
  C      -1.003488      1.150078     -1.440348
  C      -1.890452      0.197798     -0.924513
  C      -3.105545      0.633529     -0.403472
  C      -3.437270      1.986680     -0.436618
  C      -2.566598      2.915960     -0.999411
  H      -0.646956      3.199541     -1.946766
  H      -0.061590      0.820044     -1.861806
  H      -3.809746     -0.081868      0.004078
  H      -2.847405      3.961041     -1.037361
  C      -1.555713     -1.300265     -0.992952
  C      -1.685702     -2.060736      0.305876
  H      -1.416181     -3.109614      0.196470
  H      -2.717398     -2.001932      0.652162
  H      -1.030952     -1.613536      1.048032
  N      -2.493695     -1.913687     -2.055522
  O      -2.567825     -1.333587     -3.128804
  O      -3.083636     -2.948610     -1.804720
  N       0.993493     -0.198165      0.534533
  C       1.958991     -1.274767      0.713590
  C       2.621373     -1.226299      2.080874
  C       3.234255      0.148465      2.330297
  C       2.147991      1.219180      2.235558
  C       1.398205      1.164650      0.904545
  H       0.484448      1.755967      0.998948
  H       2.000039      1.659611      0.128104
  H       2.578108      2.217500      2.348059
  H       1.443512      1.085868      3.063500
  H       3.372154     -2.016584      2.153273
  H       1.864111     -1.426252      2.847755
  H       2.723358     -1.259530     -0.091157
  H      -0.593776     -1.398693     -1.500911
  H       0.766300     -0.223546     -0.445371
  H       1.415706     -2.212875      0.590112
  H       3.719765      0.185992      3.308530
  H       4.010436      0.342259      1.580163
  H      -4.387694      2.313133     -0.033328
  H       2.160888     -1.320429     -2.366492
  H       1.918288      0.155573     -2.502177
  O       1.432322     -0.684157     -2.538898
40
Coordinates from ORCA-job /home/rudenko/2025/kie/for_orca/c6h5chno2ch3_piperidine/orca/ts_opt/ts_opt E -843.626576019017
  C      -1.346531      2.499422     -1.521097
  C      -1.004892      1.157533     -1.445148
  C      -1.892099      0.203954     -0.933811
  C      -3.110268      0.638773     -0.417510
  C      -3.444344      1.990922     -0.451580
  C      -2.572884      2.921800     -1.011441
  H      -0.651398      3.207388     -1.953054
  H      -0.062161      0.833623     -1.870195
  H      -3.814764     -0.077761     -0.012424
  H      -2.855104      3.966408     -1.051824
  C      -1.556700     -1.294147     -0.998632
  C      -1.678597     -2.047001      0.306036
  H      -1.389677     -3.092196      0.210886
  H      -2.712850     -2.002736      0.646608
  H      -1.033000     -1.579129      1.043919
  N      -2.498786     -1.915237     -2.052647
  O      -2.597778     -1.328663     -3.120282
  O      -3.067194     -2.962099     -1.801290
  N       0.985708     -0.222770      0.547943
  C       1.959026     -1.289939      0.724481
  C       2.636157     -1.231875      2.084652
  C       3.246648      0.146003      2.321585
  C       2.152867      1.209055      2.236619
  C       1.384271      1.144417      0.916971
  H       0.467053      1.728386      1.024505
  H       1.965627      1.643181      0.128572
  H       2.576982      2.211158      2.337851
  H       1.461112      1.074044      3.074862
  H       3.390242     -2.019520      2.150618
  H       1.889577     -1.431697      2.861982
  H       2.721160     -1.275942     -0.078523
  H      -0.597020     -1.392425     -1.510017
  H       0.748523     -0.232176     -0.434743
  H       1.422932     -2.234032      0.612169
  H       3.743669      0.188583      3.293800
  H       4.012857      0.341609      1.561821
  H      -4.396819      2.315569     -0.051719
  H       2.158332     -1.301050     -2.334497
  H       1.924479      0.172932     -2.502262
  O       1.435646     -0.664364     -2.533184
40
Coordinates from ORCA-job /home/rudenko/2025/kie/for_orca/c6h5chno2ch3_piperidine/orca/ts_opt/ts_opt E -843.626378428710
  C      -1.355147      2.506633     -1.525561
  C      -1.008389      1.164681     -1.449461
  C      -1.897429      0.209825     -0.945909
  C      -3.120465      0.642581     -0.436666
  C      -3.457941      1.992849     -0.470123
  C      -2.584319      2.926646     -1.023084
  H      -0.660364      3.216462     -1.955178
  H      -0.066994      0.846059     -1.874376
  H      -3.825809     -0.076398     -0.037285
  H      -2.867933      3.970776     -1.065639
  C      -1.560642     -1.288259     -1.007203
  C      -1.675321     -2.037284      0.302502
  H      -1.365651     -3.077886      0.223164
  H      -2.713912     -2.009408      0.631523
  H      -1.041901     -1.549906      1.040278
  N      -2.506100     -1.915197     -2.054209
  O      -2.630477     -1.321475     -3.114910
  O      -3.052225     -2.973993     -1.803536
  N       0.980234     -0.244795      0.565208
  C       1.956560     -1.301128      0.739798
  C       2.652135     -1.235009      2.090895
  C       3.266581      0.142701      2.313354
  C       2.168548      1.201409      2.238924
  C       1.378574      1.128015      0.932501
  H       0.461136      1.709426      1.053432
  H       1.940030      1.626646      0.131043
  H       2.589229      2.206262      2.326341
  H       1.491031      1.067375      3.088743
  H       3.405835     -2.023689      2.147568
  H       1.918453     -1.431037      2.881393
  H       2.717451     -1.292174     -0.062053
  H      -0.602328     -1.385978     -1.518973
  H       0.731418     -0.240190     -0.418556
  H       1.423276     -2.248761      0.638294
  H       3.776476      0.188053      3.278727
  H       4.022714      0.337342      1.543454
  H      -4.413877      2.314227     -0.075989
  H       2.157074     -1.285154     -2.301773
  H       1.929657      0.185399     -2.501177
  O       1.440814     -0.645645     -2.525480
40
Coordinates from ORCA-job /home/rudenko/2025/kie/for_orca/c6h5chno2ch3_piperidine/orca/ts_opt/ts_opt E -843.626420225255
  C      -1.344568      2.499497     -1.526276
  C      -1.004803      1.157934     -1.445745
  C      -1.889412      0.204629     -0.930025
  C      -3.106019      0.641552     -0.411694
  C      -3.439504      1.994309     -0.449265
  C      -2.570042      2.923362     -1.014597
  H      -0.649986      3.205727     -1.961729
  H      -0.059758      0.834646     -1.873420
  H      -3.810270     -0.072785     -0.002565
  H      -2.853043      3.967691     -1.057462
  C      -1.554285     -1.293004     -0.995214
  C      -1.673577     -2.044757      0.309471
  H      -1.383541     -3.089486      0.211123
  H      -2.706188     -2.002649      0.654803
  H      -1.026894     -1.576572      1.045688
  N      -2.498102     -1.914949     -2.048383
  O      -2.599103     -1.327063     -3.115229
  O      -3.065274     -2.962577     -1.797630
  N       0.984096     -0.226796      0.545903
  C       1.961520     -1.293076      0.720935
  C       2.636018     -1.233867      2.082319
  C       3.241189      0.146456      2.321550
  C       2.143227      1.205338      2.236778
  C       1.378489      1.139815      0.914721
  H       0.459519      1.721902      1.019415
  H       1.960605      1.641744      0.128426
  H       2.563365      2.208597      2.343010
  H       1.449673      1.065203      3.072717
  H       3.392824     -2.018629      2.151333
  H       1.887418     -1.436042      2.856901
  H       2.723588     -1.274930     -0.081262
  H      -0.595621     -1.391544     -1.508936
  H       0.746949     -0.233370     -0.438421
  H       1.428348     -2.238277      0.608835
  H       3.736985      0.190829      3.294315
  H       4.006952      0.344963      1.562132
  H      -4.390708      2.320516     -0.047620
  H       2.158396     -1.298499     -2.335459
  H       1.926749      0.176927     -2.503860
  O       1.434792     -0.662763     -2.535583
40
Coordinates from ORCA-job /home/rudenko/2025/kie/for_orca/c6h5chno2ch3_piperidine/orca/ts_opt/ts_opt E -843.626093990666
  C      -1.332499      2.490947     -1.528319
  C      -0.997679      1.149406     -1.442308
  C      -1.878603      0.199864     -0.913641
  C      -3.088980      0.642041     -0.386327
  C      -3.418567      1.996407     -0.428290
  C      -2.553201      2.919955     -1.007200
  H      -0.639448      3.193185     -1.972242
  H      -0.053179      0.821836     -1.872550
  H      -3.792211     -0.067211      0.033027
  H      -2.835143      3.964516     -1.052370
  C      -1.546195     -1.296069     -0.983621
  C      -1.666186     -2.053085      0.316604
  H      -1.393697     -3.100874      0.200865
  H      -2.692630     -1.999898      0.678132
  H      -1.005490     -1.602578      1.050821
  N      -2.492235     -1.912761     -2.039926
  O      -2.556841     -1.344818     -3.120459
  O      -3.095902     -2.936803     -1.777591
  N       0.986509     -0.213567      0.524364
  C       1.965492     -1.283901      0.702010
  C       2.619540     -1.231739      2.073285
  C       3.214148      0.150533      2.330908
  C       2.114300      1.206901      2.236053
  C       1.376335      1.149154      0.898319
  H       0.456904      1.733647      0.985291
  H       1.978385      1.654631      0.128008
  H       2.530111      2.209648      2.362285
  H       1.404532      1.056721      3.056580
  H       3.379691     -2.012327      2.152245
  H       1.857915     -1.441894      2.832736
  H       2.730436     -1.253637     -0.096959
  H      -0.588394     -1.394100     -1.500464
  H       0.760785     -0.228757     -0.461702
  H       1.434407     -2.228463      0.577913
  H       3.694864      0.192150      3.311324
  H       3.989704      0.355634      1.583298
  H      -4.364853      2.327565     -0.019092
  H       2.157162     -1.306267     -2.373992
  H       1.916154      0.167715     -2.508708
  O       1.424562     -0.673707     -2.548304
40
Coordinates from ORCA-job /home/rudenko/2025/kie/for_orca/c6h5chno2ch3_piperidine/orca/ts_opt/ts_opt E -843.626016161171
  C      -1.325054      2.484387     -1.529672
  C      -0.994112      1.142763     -1.441458
  C      -1.872872      0.195586     -0.902184
  C      -3.077828      0.641798     -0.367303
  C      -3.403651      1.997659     -0.411010
  C      -2.541443      2.917199     -0.999908
  H      -0.633583      3.184021     -1.979933
  H      -0.051229      0.811127     -1.872976
  H      -3.780082     -0.063251      0.060499
  H      -2.821918      3.962177     -1.045325
  C      -1.541112     -1.300016     -0.974670
  C      -1.660756     -2.061390      0.322166
  H      -1.409235     -3.112790      0.191801
  H      -2.679871     -1.993984      0.701310
  H      -0.982996     -1.628344      1.051149
  N      -2.489783     -1.912631     -2.032712
  O      -2.514180     -1.371702     -3.128686
  O      -3.134862     -2.907042     -1.755273
  N       0.992649     -0.199920      0.504580
  C       1.972064     -1.273494      0.685909
  C       2.606464     -1.229325      2.066524
  C       3.191342      0.153613      2.343709
  C       2.091033      1.208388      2.237329
  C       1.382106      1.159500      0.883903
  H       0.464414      1.749375      0.950698
  H       2.005978      1.664705      0.130501
  H       2.502434      2.210212      2.383660
  H       1.363561      1.047925      3.040306
  H       3.369632     -2.006235      2.152593
  H       1.833686     -1.448625      2.811910
  H       2.741418     -1.232765     -0.108554
  H      -0.583624     -1.396840     -1.493293
  H       0.775863     -0.223321     -0.482252
  H       1.442063     -2.216752      0.549017
  H       3.655547      0.190756      3.332241
  H       3.978012      0.365194      1.609648
  H      -4.345512      2.332738      0.005185
  H       2.155323     -1.314130     -2.412831
  H       1.904976      0.157822     -2.514666
  O       1.415136     -0.684387     -2.561935
40
Coordinates from ORCA-job /home/rudenko/2025/kie/for_orca/c6h5chno2ch3_piperidine/orca/ts_opt/ts_opt E -843.625825933915
  C      -1.319059      2.477496     -1.530804
  C      -0.991025      1.135927     -1.440452
  C      -1.867777      0.191407     -0.890965
  C      -3.068102      0.641138     -0.350130
  C      -3.391110      1.998141     -0.396282
  C      -2.531657      2.913903     -0.993931
  H      -0.629093      3.174891     -1.986704
  H      -0.049398      0.800160     -1.872372
  H      -3.769301     -0.060071      0.085488
  H      -2.810617      3.959282     -1.039956
  C      -1.535795     -1.303692     -0.963925
  C      -1.655918     -2.068811      0.329901
  H      -1.429852     -3.124302      0.185797
  H      -2.666129     -1.983589      0.728394
  H      -0.958305     -1.655237      1.050709
  N      -2.487183     -1.911433     -2.023535
  O      -2.484357     -1.387886     -3.128197
  O      -3.160184     -2.885029     -1.738455
  N       0.999626     -0.184630      0.485206
  C       1.978027     -1.261804      0.667538
  C       2.592750     -1.227390      2.057535
  C       3.167805      0.155606      2.356715
  C       2.067604      1.209923      2.238948
  C       1.391078      1.170683      0.869441
  H       0.476705      1.767810      0.912595
  H       2.040530      1.672685      0.134308
  H       2.473977      2.210404      2.406737
  H       1.321188      1.038593      3.022144
  H       3.358574     -2.001154      2.148835
  H       1.809526     -1.456855      2.788731
  H       2.752447     -1.210636     -0.124391
  H      -0.577980     -1.399481     -1.483346
  H       0.792816     -0.216625     -0.498994
  H       1.449363     -2.203176      0.516332
  H       3.614326      0.186304      3.353591
  H       3.966270      0.374339      1.637650
  H      -4.329199      2.336671      0.025618
  H       2.155073     -1.323864     -2.448362
  H       1.896379      0.146970     -2.518593
  O       1.407976     -0.696668     -2.572820
40
Coordinates from ORCA-job /home/rudenko/2025/kie/for_orca/c6h5chno2ch3_piperidine/orca/ts_opt/ts_opt E -843.625537964947
  C      -1.313972      2.470262     -1.532576
  C      -0.988740      1.128815     -1.439976
  C      -1.863056      0.187743     -0.879393
  C      -3.058569      0.640868     -0.332569
  C      -3.379338      1.998823     -0.382188
  C      -2.522768      2.910523     -0.989011
  H      -0.625596      3.165301     -1.994384
  H      -0.048005      0.788654     -1.872149
  H      -3.758517     -0.056574      0.110919
  H      -2.800123      3.956282     -1.036297
  C      -1.531153     -1.306561     -0.952910
  C      -1.651504     -2.076017      0.337609
  H      -1.451645     -3.134859      0.179742
  H      -2.652106     -1.972889      0.755371
  H      -0.934633     -1.682943      1.049693
  N      -2.483824     -1.910105     -2.014388
  O      -2.458217     -1.401571     -3.125711
  O      -3.179542     -2.865942     -1.723796
  N       1.006913     -0.167428      0.468134
  C       1.984263     -1.249107      0.648922
  C       2.580070     -1.225840      2.047651
  C       3.144377      0.157250      2.370076
  C       2.044035      1.211208      2.240996
  C       1.402494      1.181966      0.855413
  H       0.493265      1.787999      0.872253
  H       2.078044      1.677698      0.137942
  H       2.443821      2.210202      2.431512
  H       1.278168      1.027618      3.002415
  H       3.348764     -1.996405      2.142722
  H       1.787333     -1.466577      2.764694
  H       2.763183     -1.187632     -0.141095
  H      -0.572725     -1.400951     -1.473227
  H       0.809138     -0.208112     -0.513037
  H       1.457344     -2.188292      0.483305
  H       3.572367      0.180438      3.375255
  H       3.954792      0.384064      1.667088
  H      -4.313852      2.340784      0.044858
  H       2.152202     -1.334490     -2.481024
  H       1.887381      0.135571     -2.521213
  O       1.399934     -0.709774     -2.581626
40
Coordinates from ORCA-job /home/rudenko/2025/kie/for_orca/c6h5chno2ch3_piperidine/orca/ts_opt/ts_opt E -843.625192915807
  C      -1.309950      2.462656     -1.535229
  C      -0.987410      1.121307     -1.440711
  C      -1.858918      0.184249     -0.868342
  C      -3.049383      0.640516     -0.315093
  C      -3.368125      1.999340     -0.368206
  C      -2.514693      2.906856     -0.984639
  H      -0.623419      3.155330     -2.003257
  H      -0.047840      0.776482     -1.872975
  H      -3.747638     -0.053321      0.136534
  H      -2.790354      3.953002     -1.033320
  C      -1.526942     -1.309032     -0.942848
  C      -1.646684     -2.083553      0.344162
  H      -1.472806     -3.144793      0.172426
  H      -2.636997     -1.963523      0.781347
  H      -0.910958     -1.711223      1.047205
  N      -2.480618     -1.907927     -2.006188
  O      -2.433026     -1.414587     -3.123553
  O      -3.198309     -2.845805     -1.710631
  N       1.014399     -0.149218      0.453489
  C       1.990595     -1.235623      0.631185
  C       2.568447     -1.224060      2.037987
  C       3.121484      0.158894      2.384266
  C       2.021353      1.212740      2.243438
  C       1.416431      1.193425      0.842395
  H       0.514574      1.810478      0.831316
  H       2.117886      1.679727      0.141976
  H       2.413449      2.209993      2.457204
  H       1.235889      1.016287      2.981359
  H       3.340240     -1.991280      2.135861
  H       1.767138     -1.476772      2.741071
  H       2.773392     -1.164103     -0.157140
  H      -0.567940     -1.401807     -1.464031
  H       0.824255     -0.198303     -0.524746
  H       1.465302     -2.172567      0.451279
  H       3.530090      0.173811      3.397648
  H       3.944147      0.394156      1.698538
  H      -4.298964      2.344708      0.064094
  H       2.145588     -1.346103     -2.511328
  H       1.876551      0.123165     -2.523450
  O       1.389763     -0.723521     -2.589090
40
Coordinates from ORCA-job /home/rudenko/2025/kie/for_orca/c6h5chno2ch3_piperidine/orca/ts_opt/ts_opt E -843.624739366835
  C      -1.307320      2.454754     -1.539889
  C      -0.987267      1.113576     -1.443407
  C      -1.855583      0.181002     -0.858240
  C      -3.040631      0.640150     -0.298019
  C      -3.357595      1.999793     -0.354997
  C      -2.507802      2.902892     -0.981827
  H      -0.623017      3.145073     -2.014573
  H      -0.048690      0.763653     -1.875331
  H      -3.736569     -0.050123      0.162455
  H      -2.781855      3.949385     -1.032116
  C      -1.523011     -1.311073     -0.933667
  C      -1.641131     -2.091001      0.349707
  H      -1.490578     -3.153417      0.164072
  H      -2.621055     -1.957311      0.805854
  H      -0.888438     -1.737955      1.043887
  N      -2.477564     -1.905233     -1.998552
  O      -2.410531     -1.425712     -3.120864
  O      -3.214826     -2.826521     -1.699016
  N       1.021716     -0.129259      0.440763
  C       1.996746     -1.221014      0.614371
  C       2.557810     -1.222538      2.028399
  C       3.099669      0.159711      2.399389
  C       2.000463      1.213820      2.246349
  C       1.432688      1.205455      0.830906
  H       0.540937      1.836076      0.792481
  H       2.159076      1.679422      0.146040
  H       2.383768      2.208965      2.484096
  H       1.195232      1.004285      2.958952
  H       3.332851     -1.986400      2.127846
  H       1.748891     -1.488037      2.717722
  H       2.783034     -1.139555     -0.172601
  H      -0.563746     -1.402102     -1.455696
  H       0.837876     -0.186496     -0.533933
  H       1.472930     -2.155581      0.420565
  H       3.487933      0.165320      3.420859
  H       3.935124      0.403562      1.732418
  H      -4.284539      2.348643      0.082839
  H       2.134334     -1.358479     -2.538686
  H       1.863647      0.110062     -2.524091
  O       1.377021     -0.737793     -2.594467
40
Coordinates from ORCA-job /home/rudenko/2025/kie/for_orca/c6h5chno2ch3_piperidine/orca/ts_opt/ts_opt E -843.624211757934
  C      -1.305890      2.446990     -1.545081
  C      -0.988166      1.105887     -1.447880
  C      -1.853353      0.177501     -0.849941
  C      -3.032853      0.639133     -0.282376
  C      -3.347993      1.999630     -0.342284
  C      -2.501923      2.898645     -0.978957
  H      -0.624099      3.135357     -2.026147
  H      -0.050984      0.750764     -1.878967
  H      -3.726096     -0.047948      0.186766
  H      -2.774318      3.945531     -1.030086
  C      -1.519899     -1.313749     -0.926548
  C      -1.636197     -2.099509      0.353245
  H      -1.509640     -3.162547      0.154035
  H      -2.604946     -1.952238      0.828643
  H      -0.866475     -1.765841      1.037913
  N      -2.475120     -1.902893     -1.993156
  O      -2.388514     -1.438092     -3.120274
  O      -3.232181     -2.806791     -1.689871
  N       1.029271     -0.108853      0.430756
  C       2.002714     -1.205828      0.599387
  C       2.547919     -1.220316      2.020044
  C       3.079747      0.160498      2.415218
  C       1.983289      1.216456      2.249475
  C       1.451247      1.217774      0.821456
  H       0.571438      1.863134      0.756706
  H       2.201654      1.676814      0.151176
  H       2.358504      2.209029      2.509511
  H       1.159277      0.995831      2.936842
  H       3.325791     -1.981258      2.120653
  H       1.732072     -1.497962      2.696082
  H       2.791849     -1.114784     -0.186655
  H      -0.560199     -1.402641     -1.449131
  H       0.850090     -0.173424     -0.540242
  H       1.479909     -2.137850      0.391678
  H       3.447284      0.156338      3.444371
  H       3.928328      0.411615      1.767842
  H      -4.270881      2.351768      0.101453
  H       2.119071     -1.371288     -2.563351
  H       1.848511      0.096787     -2.523812
  O       1.361764     -0.751670     -2.598491
40
Coordinates from ORCA-job /home/rudenko/2025/kie/for_orca/c6h5chno2ch3_piperidine/orca/ts_opt/ts_opt E -843.623608659893
  C      -1.305520      2.439346     -1.550184
  C      -0.989938      1.098193     -1.454001
  C      -1.852196      0.173515     -0.843526
  C      -3.025995      0.637208     -0.268142
  C      -3.339228      1.998596     -0.329686
  C      -2.496900      2.893990     -0.975353
  H      -0.626492      3.126341     -2.037081
  H      -0.054392      0.737556     -1.883622
  H      -3.716259     -0.047148      0.209214
  H      -2.767475      3.941365     -1.026203
  C      -1.517813     -1.317210     -0.921851
  C      -1.632457     -2.109521      0.354039
  H      -1.529213     -3.172348      0.141095
  H      -2.589755     -1.950128      0.848312
  H      -0.846720     -1.794929      1.029360
  N      -2.473240     -1.900903     -1.990670
  O      -2.367609     -1.450544     -3.122003
  O      -3.249448     -2.787567     -1.684519
  N       1.036909     -0.087806      0.423661
  C       2.008112     -1.190152      0.586714
  C       2.538318     -1.217156      2.013358
  C       3.062199      0.161437      2.431296
  C       1.970751      1.221425      2.252417
  C       1.471807      1.230754      0.813672
  H       0.605594      1.891638      0.723749
  H       2.245081      1.672221      0.156681
  H       2.339658      2.210963      2.531936
  H       1.129421      0.993009      2.915898
  H       3.318075     -1.976134      2.115197
  H       1.715882     -1.505219      2.676708
  H       2.799486     -1.090163     -0.198948
  H      -0.557702     -1.403636     -1.444354
  H       0.860791     -0.159098     -0.543403
  H       1.485691     -2.119454      0.365523
  H       3.408960      0.147341      3.467585
  H       3.924124      0.417616      1.803879
  H      -4.257874      2.353740      0.120417
  H       2.099687     -1.384624     -2.584525
  H       1.831487      0.082894     -2.521969
  O       1.344192     -0.765410     -2.600668
40
Coordinates from ORCA-job /home/rudenko/2025/kie/for_orca/c6h5chno2ch3_piperidine/orca/ts_opt/ts_opt E -843.623003417373
  C      -1.306358      2.431782     -1.554456
  C      -0.992717      1.090396     -1.461701
  C      -1.852572      0.168664     -0.839688
  C      -3.020722      0.633872     -0.256226
  C      -3.331889      1.996194     -0.317481
  C      -2.492994      2.888719     -0.970499
  H      -0.630139      3.118220     -2.046067
  H      -0.058956      0.724109     -1.889040
  H      -3.707922     -0.048433      0.228347
  H      -2.761424      3.936736     -1.019524
  C      -1.517320     -1.321771     -0.920195
  C      -1.630946     -2.121183      0.351339
  H      -1.551388     -3.183163      0.124818
  H      -2.576377     -1.950058      0.864139
  H      -0.829686     -1.825776      1.017195
  N      -2.472464     -1.899226     -1.992043
  O      -2.347270     -1.463767     -3.127198
  O      -3.268219     -2.767876     -1.683834
  N       1.044537     -0.066638      0.420319
  C       2.012898     -1.174398      0.577242
  C       2.529496     -1.212754      2.009054
  C       3.048221      0.162920      2.446965
  C       1.964118      1.229449      2.255594
  C       1.493937      1.244538      0.808157
  H       0.642332      1.920813      0.694127
  H       2.288545      1.665674      0.163139
  H       2.329899      2.215529      2.550620
  H       1.107691      0.997660      2.898318
  H       3.309806     -1.971082      2.112450
  H       1.700764     -1.508460      2.660869
  H       2.806050     -1.066496     -0.208717
  H      -0.556795     -1.405408     -1.441541
  H       0.869925     -0.143862     -0.543417
  H       1.489999     -2.100834      0.343339
  H       3.375437      0.139291      3.489452
  H       3.922862      0.421318      1.838405
  H      -4.246227      2.353874      0.139344
  H       2.077879     -1.398551     -2.602095
  H       1.813064      0.068662     -2.518375
  O       1.324926     -0.778683     -2.601134
40
Coordinates from ORCA-job /home/rudenko/2025/kie/for_orca/c6h5chno2ch3_piperidine/orca/ts_opt/ts_opt E -843.622499041424
  C      -1.308615      2.424268     -1.557787
  C      -0.996825      1.082421     -1.471027
  C      -1.854739      0.162902     -0.839057
  C      -3.017535      0.628957     -0.247506
  C      -3.326602      1.992196     -0.306427
  C      -2.490575      2.882765     -0.964717
  H      -0.635007      3.111012     -2.052647
  H      -0.064680      0.710422     -1.895123
  H      -3.701695     -0.052104      0.243001
  H      -2.756432      3.931594     -1.010333
  C      -1.518398     -1.327200     -0.921866
  C      -1.631706     -2.133980      0.345071
  H      -1.575778     -3.194639      0.106038
  H      -2.565251     -1.951284      0.875310
  H      -0.815573     -1.857780      1.001535
  N      -2.473115     -1.897520     -1.997372
  O      -2.327284     -1.478373     -3.136173
  O      -3.289583     -2.746371     -1.687416
  N       1.051512     -0.046001      0.420855
  C       2.016753     -1.158854      0.571450
  C       2.522053     -1.207168      2.007332
  C       3.038759      0.164966      2.461543
  C       1.963863      1.239994      2.259490
  C       1.516871      1.258936      0.805435
  H       0.680515      1.950126      0.668971
  H       2.331237      1.657757      0.171436
  H       2.330280      2.222283      2.565798
  H       1.095044      1.009229      2.885758
  H       3.301572     -1.966215      2.112292
  H       1.687587     -1.507477      2.649428
  H       2.811276     -1.044368     -0.215130
  H      -0.557321     -1.407658     -1.440677
  H       0.877097     -0.128130     -0.540651
  H       1.492478     -2.082098      0.326004
  H       3.348947      0.132685      3.509014
  H       3.924651      0.422800      1.869337
  H      -4.236729      2.351785      0.157259
  H       2.054744     -1.412830     -2.615998
  H       1.793670      0.054377     -2.512604
  O       1.304533     -0.791420     -2.599849
40
Coordinates from ORCA-job /home/rudenko/2025/kie/for_orca/c6h5chno2ch3_piperidine/orca/ts_opt/ts_opt E -843.622166795756
  C      -1.312387      2.417143     -1.560387
  C      -1.002589      1.074583     -1.482024
  C      -1.858890      0.156641     -0.841907
  C      -3.016755      0.622908     -0.242408
  C      -3.323707      1.987007     -0.297097
  C      -2.489812      2.876546     -0.958495
  H      -0.641016      3.104945     -2.056974
  H      -0.071719      0.696889     -1.901984
  H      -3.697998     -0.057679      0.252713
  H      -2.752598      3.926348     -0.999246
  C      -1.521071     -1.333029     -0.926716
  C      -1.634495     -2.146772      0.335923
  H      -1.601396     -3.205918      0.086490
  H      -2.556475     -1.952477      0.881979
  H      -0.804302     -1.889481      0.983010
  N      -2.474796     -1.896857     -2.005984
  O      -2.307450     -1.496573     -3.148550
  O      -3.312639     -2.724105     -1.693828
  N       1.057601     -0.026126      0.424553
  C       2.019512     -1.143687      0.569127
  C       2.516277     -1.200861      2.007880
  C       3.033985      0.167172      2.474919
  C       1.969524      1.251852      2.264413
  C       1.540383      1.273616      0.805462
  H       0.719462      1.979037      0.649245
  H       2.372905      1.648986      0.181689
  H       2.339910      2.230127      2.578397
  H       1.090932      1.025537      2.878538
  H       3.293851     -1.961856      2.113897
  H       1.676827     -1.503154      2.642315
  H       2.815106     -1.024048     -0.218025
  H      -0.559068     -1.409817     -1.441707
  H       0.882238     -0.111864     -0.535763
  H       1.493021     -2.063284      0.313544
  H       3.330071      0.127202      3.526212
  H       3.929422      0.422265      1.896151
  H      -4.229824      2.347863      0.173412
  H       2.030795     -1.426607     -2.626712
  H       1.773621      0.040713     -2.504825
  O       1.283542     -0.803182     -2.597238
40
Coordinates from ORCA-job /home/rudenko/2025/kie/for_orca/c6h5chno2ch3_piperidine/orca/ts_opt/ts_opt E -843.621974816720
  C      -1.317823      2.410639     -1.562550
  C      -1.010131      1.067181     -1.494416
  C      -1.865256      0.150275     -0.847947
  C      -3.018871      0.616181     -0.241121
  C      -3.323751      1.981022     -0.290203
  C      -2.491082      2.870341     -0.952586
  H      -0.648244      3.100118     -2.059433
  H      -0.080025      0.683872     -1.909445
  H      -3.697494     -0.064581      0.257262
  H      -2.750407      3.921211     -0.987458
  C      -1.525317     -1.338729     -0.933890
  C      -1.639363     -2.158427      0.325185
  H      -1.628333     -3.216021      0.067617
  H      -2.549956     -1.952278      0.885728
  H      -0.795900     -1.919455      0.962601
  N      -2.476893     -1.897706     -2.016855
  O      -2.287812     -1.518435     -3.163093
  O      -3.335662     -2.702564     -1.702204
  N       1.063094     -0.006882      0.430990
  C       2.021642     -1.129103      0.569441
  C       2.512627     -1.194481      2.009942
  C       3.033750      0.169039      2.487223
  C       1.980227      1.263823      2.270441
  C       1.564488      1.288143      0.807921
  H       0.758830      2.007015      0.634871
  H       2.413492      1.639706      0.193572
  H       2.356953      2.237996      2.589399
  H       1.094142      1.044119      2.876098
  H       3.287426     -1.958363      2.116028
  H       1.669068     -1.496933      2.638691
  H       2.818007     -1.005513     -0.218081
  H      -0.561760     -1.411339     -1.443988
  H       0.885742     -0.094789     -0.528775
  H       1.492262     -2.044735      0.304972
  H       3.318420      0.122140      3.541387
  H       3.937170      0.420049      1.919295
  H      -4.226278      2.342543      0.186646
  H       2.006800     -1.439439     -2.634616
  H       1.753549      0.028133     -2.495194
  O       1.262666     -0.813771     -2.593453
40
Coordinates from ORCA-job /home/rudenko/2025/kie/for_orca/c6h5chno2ch3_piperidine/orca/ts_opt/ts_opt E -843.621921403222
  C      -1.324971      2.404764     -1.564633
  C      -1.019476      1.060300     -1.507848
  C      -1.873800      0.144039     -0.856724
  C      -3.024066      0.609077     -0.243617
  C      -3.327052      1.974476     -0.286338
  C      -2.494645      2.864242     -0.947769
  H      -0.656707      3.096346     -2.060590
  H      -0.089756      0.671589     -1.917355
  H      -3.700493     -0.072402      0.256683
  H      -2.750293      3.916195     -0.976250
  C      -1.531015     -1.343985     -0.942765
  C      -1.645952     -2.168474      0.313681
  H      -1.656103     -3.224559      0.050194
  H      -2.545350     -1.950250      0.887462
  H      -0.790052     -1.947196      0.941090
  N      -2.479321     -1.900085     -2.029125
  O      -2.268293     -1.544140     -3.178856
  O      -3.358547     -2.681744     -1.711731
  N       1.068291      0.011838      0.439872
  C       2.023545     -1.115085      0.571830
  C       2.511299     -1.188439      2.013083
  C       3.037854      0.170151      2.498753
  C       1.995457      1.275206      2.277821
  C       1.589290      1.302270      0.812785
  H       0.798589      2.033996      0.625950
  H       2.453020      1.630172      0.206952
  H       2.380307      2.245200      2.599721
  H       1.103839      1.063508      2.878102
  H       3.282667     -1.955996      2.117993
  H       1.664531     -1.489771      2.637951
  H       2.820386     -0.988446     -0.215726
  H      -0.565222     -1.411865     -1.447218
  H       0.887848     -0.076704     -0.519978
  H       1.490877     -2.026522      0.299613
  H       3.313526      0.116785      3.554999
  H       3.947883      0.416262      1.939410
  H      -4.226626      2.336109      0.195961
  H       1.982948     -1.450878     -2.640304
  H       1.733551      0.017003     -2.484220
  O       1.242031     -0.822988     -2.588861
40
Coordinates from ORCA-job /home/rudenko/2025/kie/for_orca/c6h5chno2ch3_piperidine/orca/ts_opt/ts_opt E -843.621997565563
  C      -1.333715      2.399571     -1.566534
  C      -1.030547      1.054034     -1.521596
  C      -1.884423      0.138085     -0.867652
  C      -3.032523      0.601776     -0.249791
  C      -3.333900      1.967513     -0.285888
  C      -2.500663      2.858334     -0.944424
  H      -0.666162      3.093521     -2.060371
  H      -0.100943      0.660316     -1.925109
  H      -3.707345     -0.080903      0.250961
  H      -2.752609      3.911320     -0.966385
  C      -1.537987     -1.348625     -0.952882
  C      -1.653942     -2.176869      0.301866
  H      -1.684319     -3.231536      0.034481
  H      -2.542427     -1.946415      0.887602
  H      -0.786455     -1.972784      0.919008
  N      -2.482183     -1.903741     -2.042157
  O      -2.249008     -1.573511     -3.195074
  O      -3.381570     -2.661201     -1.721882
  N       1.073466      0.029918      0.450902
  C       2.025582     -1.101654      0.576044
  C       2.512331     -1.183026      2.017171
  C       3.045979      0.170297      2.509611
  C       2.014787      1.285629      2.286275
  C       1.614802      1.315530      0.819563
  H       0.838763      2.059755      0.621926
  H       2.491368      1.619942      0.220760
  H       2.409195      2.251397      2.609330
  H       1.119294      1.083042      2.883810
  H       3.279764     -1.954871      2.119684
  H       1.663234     -1.482362      2.639776
  H       2.822657     -0.972508     -0.210943
  H      -0.569175     -1.411114     -1.451122
  H       0.888882     -0.057525     -0.509375
  H       1.489523     -2.008753      0.296968
  H       3.314832      0.110939      3.567285
  H       3.961400      0.410905      1.956820
  H      -4.231404      2.328726      0.200540
  H       1.959611     -1.460412     -2.643965
  H       1.713921      0.007779     -2.471833
  O       1.221909     -0.830518     -2.583400
40
Coordinates from ORCA-job /home/rudenko/2025/kie/for_orca/c6h5chno2ch3_piperidine/orca/ts_opt/ts_opt E -843.622123243310
  C      -1.343853      2.395019     -1.568513
  C      -1.042925      1.048427     -1.535071
  C      -1.896838      0.132569     -0.879918
  C      -3.044081      0.594575     -0.259166
  C      -3.344233      1.960403     -0.289075
  C      -2.509144      2.852671     -0.943153
  H      -0.676440      3.091437     -2.059283
  H      -0.113118      0.649954     -1.932191
  H      -3.717952     -0.089622      0.240725
  H      -2.757608      3.906571     -0.959004
  C      -1.545929     -1.352465     -0.963507
  C      -1.662695     -2.183610      0.290311
  H      -1.712490     -3.236836      0.020303
  H      -2.540269     -1.941171      0.887385
  H      -0.784229     -1.996095      0.896739
  N      -2.485371     -1.908254     -2.055195
  O      -2.230873     -1.604670     -3.210688
  O      -3.403764     -2.641724     -1.732307
  N       1.078803      0.047336      0.463773
  C       2.027972     -1.088872      0.581351
  C       2.515429     -1.178512      2.021678
  C       3.057498      0.169251      2.519851
  C       2.037454      1.294840      2.295632
  C       1.640736      1.327735      0.827954
  H       0.879073      2.084213      0.622194
  H       2.528158      1.608946      0.234466
  H       2.442427      2.256337      2.618457
  H       1.139475      1.102037      2.892527
  H       3.278474     -1.955167      2.120642
  H       1.664749     -1.475275      2.643326
  H       2.825048     -0.957337     -0.204464
  H      -0.573526     -1.408846     -1.455031
  H       0.889230     -0.037299     -0.497032
  H       1.488620     -1.991789      0.295988
  H       3.321302      0.104147      3.578448
  H       3.977337      0.404033      1.972011
  H      -4.240693      2.320803      0.199842
  H       1.937053     -1.467930     -2.645690
  H       1.694741      0.000447     -2.457536
  O       1.202451     -0.836277     -2.576780
40
Coordinates from ORCA-job /home/rudenko/2025/kie/for_orca/c6h5chno2ch3_piperidine/orca/ts_opt/ts_opt E -843.622302444014
  C      -1.355014      2.391117     -1.570620
  C      -1.056384      1.043496     -1.547965
  C      -1.910735      0.127504     -0.893136
  C      -3.058348      0.587611     -0.271347
  C      -3.357578      1.953352     -0.295681
  C      -2.519699      2.847368     -0.943956
  H      -0.687084      3.089951     -2.057448
  H      -0.126233      0.640641     -1.938532
  H      -3.731909     -0.098318      0.226542
  H      -2.764967      3.902063     -0.954167
  C      -1.554621     -1.355692     -0.974492
  C      -1.671739     -2.188693      0.279346
  H      -1.740201     -3.240594      0.008364
  H      -2.538556     -1.934119      0.886826
  H      -0.782922     -2.017117      0.875031
  N      -2.488900     -1.913844     -2.068017
  O      -2.213279     -1.638947     -3.225621
  O      -3.425968     -2.622504     -1.742604
  N       1.084257      0.063819      0.477980
  C       2.030850     -1.076679      0.587511
  C       2.520371     -1.174910      2.026482
  C       3.071853      0.166984      2.529536
  C       2.062802      1.302642      2.305879
  C       1.666569      1.338721      0.837893
  H       0.918776      2.107152      0.626799
  H       2.562704      1.597437      0.247716
  H       2.479094      2.259806      2.627338
  H       1.163575      1.120014      2.903934
  H       3.278716     -1.956719      2.120910
  H       1.668790     -1.468795      2.648258
  H       2.827926     -0.942650     -0.196410
  H      -0.578288     -1.405136     -1.459015
  H       0.888991     -0.016241     -0.483582
  H       1.488495     -1.975568      0.296236
  H       3.332240      0.096303      3.588612
  H       3.995193      0.395819      1.985171
  H      -4.253957      2.312677      0.194135
  H       1.915650     -1.473291     -2.646412
  H       1.675911     -0.004641     -2.441880
  O       1.183618     -0.840018     -2.569610
40
Coordinates from ORCA-job /home/rudenko/2025/kie/for_orca/c6h5chno2ch3_piperidine/orca/ts_opt/ts_opt E -843.622479756722
  C      -1.366841      2.387951     -1.573166
  C      -1.070487      1.039353     -1.560174
  C      -1.925619      0.122999     -0.906840
  C      -3.074610      0.581155     -0.285626
  C      -3.373176      1.946680     -0.305251
  C      -2.531863      2.842602     -0.946897
  H      -0.697831      3.089041     -2.055425
  H      -0.139912      0.632352     -1.944208
  H      -3.748380     -0.106569      0.209483
  H      -2.774337      3.897957     -0.952074
  C      -1.563575     -1.358362     -0.985391
  C      -1.680265     -2.191805      0.269624
  H      -1.767181     -3.242573     -0.000426
  H      -2.536095     -1.924443      0.886961
  H      -0.781370     -2.035409      0.854174
  N      -2.492387     -1.920659     -2.080022
  O      -2.196331     -1.676210     -3.239239
  O      -3.447454     -2.604071     -1.752069
  N       1.089735      0.079107      0.492769
  C       2.034238     -1.065125      0.593804
  C       2.526689     -1.172411      2.031031
  C       3.087947      0.163359      2.538728
  C       2.089455      1.308642      2.316844
  C       1.691617      1.348364      0.849073
  H       0.957018      2.128347      0.635219
  H       2.594412      1.585786      0.260367
  H       2.517192      2.261473      2.636324
  H       1.189932      1.135987      2.917255
  H       3.280249     -1.959461      2.120007
  H       1.674785     -1.463607      2.653645
  H       2.831459     -0.928205     -0.187399
  H      -0.583303     -1.400019     -1.462888
  H       0.888399      0.005387     -0.469563
  H       1.489359     -1.960228      0.296655
  H       3.346023      0.087050      3.597976
  H       4.014105      0.386558      1.996897
  H      -4.270278      2.304815      0.184074
  H       1.895620     -1.476446     -2.646656
  H       1.657518     -0.007565     -2.425300
  O       1.165542     -0.841799     -2.562296
40
Coordinates from ORCA-job /home/rudenko/2025/kie/for_orca/c6h5chno2ch3_piperidine/orca/ts_opt/ts_opt E -843.623544023343
  C      -1.380630      2.385660     -1.580072
  C      -1.084375      1.036275     -1.566442
  C      -1.938210      0.120771     -0.914691
  C      -3.087655      0.578540     -0.293541
  C      -3.388277      1.943432     -0.315579
  C      -2.547340      2.840186     -0.958627
  H      -0.712224      3.087180     -2.063382
  H      -0.155830      0.624249     -1.945301
  H      -3.759468     -0.109870      0.203911
  H      -2.791066      3.895905     -0.968305
  C      -1.572035     -1.359928     -0.988007
  C      -1.691209     -2.191746      0.270358
  H      -1.789531     -3.242590      0.004714
  H      -2.543432     -1.915376      0.888116
  H      -0.788477     -2.048216      0.855321
  N      -2.489881     -1.932510     -2.087894
  O      -2.190708     -1.685969     -3.243807
  O      -3.459832     -2.584194     -1.767244
  N       1.104325      0.087811      0.498582
  C       2.050409     -1.054408      0.600765
  C       2.537618     -1.172836      2.038719
  C       3.101447      0.157902      2.554796
  C       2.108666      1.308083      2.331246
  C       1.714146      1.355329      0.859757
  H       0.986958      2.142575      0.647965
  H       2.621743      1.584981      0.273250
  H       2.542356      2.258536      2.653695
  H       1.206315      1.139327      2.930676
  H       3.288315     -1.962722      2.124811
  H       1.681777     -1.465775      2.656995
  H       2.852783     -0.909866     -0.169655
  H      -0.591581     -1.399909     -1.462966
  H       0.896687      0.017038     -0.470081
  H       1.504647     -1.946836      0.292957
  H       3.353588      0.075838      3.616018
  H       4.032241      0.379853      2.018862
  H      -4.286066      2.300746      0.172343
  H       1.881203     -1.481978     -2.684562
  H       1.635803     -0.010673     -2.435066
  O       1.146799     -0.844815     -2.578638
40
Coordinates from ORCA-job /home/rudenko/2025/kie/for_orca/c6h5chno2ch3_piperidine/orca/ts_opt/ts_opt E -843.626978701486
  C      -1.396988      2.391917     -1.580663
  C      -1.102037      1.043206     -1.576828
  C      -1.953917      0.122687     -0.936567
  C      -3.103169      0.574470     -0.312058
  C      -3.405927      1.937927     -0.326125
  C      -2.565543      2.840691     -0.962639
  H      -0.728077      3.096111     -2.059495
  H      -0.179010      0.638438     -1.962277
  H      -3.771896     -0.118917      0.183112
  H      -2.811283      3.895825     -0.969613
  C      -1.584942     -1.358339     -1.008489
  C      -1.693889     -2.177226      0.261344
  H      -1.785784     -3.232854      0.011283
  H      -2.549416     -1.896529      0.878197
  H      -0.787294     -2.022154      0.843524
  N      -2.504875     -1.942558     -2.097838
  O      -2.224784     -1.682038     -3.258287
  O      -3.473024     -2.591437     -1.763740
  N       1.115091      0.074468      0.506839
  C       2.063636     -1.062534      0.625899
  C       2.556619     -1.174323      2.059875
  C       3.124729      0.158408      2.568174
  C       2.131054      1.303413      2.339442
  C       1.730488      1.346388      0.865430
  H       1.000490      2.133639      0.667641
  H       2.629928      1.577317      0.268121
  H       2.568292      2.258558      2.656036
  H       1.226739      1.137829      2.945094
  H       3.306363     -1.966865      2.143446
  H       1.700312     -1.464836      2.683943
  H       2.868806     -0.931070     -0.129867
  H      -0.606132     -1.399634     -1.486890
  H       0.888838      0.012555     -0.469360
  H       1.512536     -1.953704      0.330015
  H       3.377586      0.084595      3.630621
  H       4.058192      0.377426      2.029917
  H      -4.304637      2.289968      0.161902
  H       1.882989     -1.476041     -2.690205
  H       1.638259     -0.005876     -2.467076
  O       1.151679     -0.838898     -2.601838
40
Coordinates from ORCA-job /home/rudenko/2025/kie/for_orca/c6h5chno2ch3_piperidine/orca/ts_opt/ts_opt E -843.629811009397
  C      -1.411855      2.399600     -1.577985
  C      -1.118702      1.049523     -1.579283
  C      -1.967996      0.125670     -0.948439
  C      -3.119155      0.576219     -0.321299
  C      -3.422833      1.939450     -0.330679
  C      -2.581218      2.846183     -0.962441
  H      -0.741123      3.103901     -2.055185
  H      -0.199364      0.652584     -1.973840
  H      -3.787606     -0.119327      0.170553
  H      -2.827303      3.901266     -0.968774
  C      -1.598033     -1.353620     -1.025907
  C      -1.690400     -2.168762      0.248004
  H      -1.767488     -3.224858      0.008003
  H      -2.546835     -1.895145      0.857800
  H      -0.786722     -2.008498      0.830525
  N      -2.526764     -1.941432     -2.103563
  O      -2.254210     -1.692216     -3.267455
  O      -3.481481     -2.616024     -1.756521
  N       1.126048      0.059979      0.515901
  C       2.076084     -1.070450      0.649747
  C       2.565769     -1.174649      2.085272
  C       3.138212      0.156395      2.582093
  C       2.150524      1.299217      2.337551
  C       1.741520      1.335761      0.866899
  H       1.008690      2.124827      0.680181
  H       2.633885      1.566251      0.258766
  H       2.593178      2.248907      2.634055
  H       1.254240      1.152343      2.946067
  H       3.311495     -1.969097      2.171427
  H       1.710611     -1.456783      2.710853
  H       2.893437     -0.947039     -0.089840
  H      -0.621245     -1.395171     -1.508689
  H       0.885116      0.009579     -0.460819
  H       1.524350     -1.965790      0.362422
  H       3.391061      0.092070      3.644415
  H       4.070032      0.364010      2.044847
  H      -4.323437      2.289541      0.156516
  H       1.892668     -1.469125     -2.702659
  H       1.643819      0.004635     -2.500662
  O       1.163029     -0.829922     -2.627857
40
Coordinates from ORCA-job /home/rudenko/2025/kie/for_orca/c6h5chno2ch3_piperidine/orca/ts_opt/ts_opt E -843.631073556625
  C      -1.433416      2.401184     -1.572053
  C      -1.142377      1.050269     -1.584735
  C      -1.995833      0.123412     -0.970984
  C      -3.155160      0.569128     -0.354647
  C      -3.457741      1.930611     -0.353003
  C      -2.606640      2.842243     -0.962338
  H      -0.756716      3.107933     -2.033587
  H      -0.222629      0.651993     -1.976183
  H      -3.829099     -0.130307      0.120223
  H      -2.849637      3.896270     -0.956957
  C      -1.622379     -1.352848     -1.049797
  C      -1.710551     -2.160746      0.229029
  H      -1.804070     -3.225141     -0.002794
  H      -2.564062     -1.866348      0.849004
  H      -0.792961     -2.006049      0.802117
  N      -2.557383     -1.943182     -2.118940
  O      -2.283448     -1.711824     -3.290111
  O      -3.511945     -2.624787     -1.754329
  N       1.149744      0.059556      0.535096
  C       2.097745     -1.070541      0.673532
  C       2.592397     -1.174393      2.106542
  C       3.173047      0.158266      2.599270
  C       2.190234      1.303825      2.348962
  C       1.779214      1.333942      0.876672
  H       1.051873      2.129402      0.695998
  H       2.670925      1.550786      0.262346
  H       2.640790      2.260573      2.641107
  H       1.287010      1.163545      2.962614
  H       3.336144     -1.973688      2.188237
  H       1.737407     -1.453279      2.737333
  H       2.922138     -0.950693     -0.052211
  H      -0.642117     -1.390050     -1.527226
  H       0.891806      0.021664     -0.438055
  H       1.543933     -1.965429      0.388598
  H       3.423304      0.099237      3.662318
  H       4.110785      0.361977      2.062830
  H      -4.363794      2.276700      0.126093
  H       1.892751     -1.467805     -2.714038
  H       1.644384      0.004442     -2.514373
  O       1.166326     -0.829850     -2.641563
40
Coordinates from ORCA-job /home/rudenko/2025/kie/for_orca/c6h5chno2ch3_piperidine/orca/ts_opt/ts_opt E -843.628602565099
  C      -1.410376      2.396199     -1.556581
  C      -1.125218      1.045885     -1.578056
  C      -1.981359      0.121026     -0.962980
  C      -3.138876      0.568279     -0.345883
  C      -3.436807      1.930598     -0.339468
  C      -2.581837      2.839307     -0.943023
  H      -0.730358      3.102356     -2.011888
  H      -0.204153      0.645060     -1.964020
  H      -3.816097     -0.129112      0.124843
  H      -2.820047      3.893496     -0.929835
  C      -1.610141     -1.355442     -1.045698
  C      -1.706909     -2.176075      0.224461
  H      -1.808642     -3.239302     -0.022674
  H      -2.559295     -1.880459      0.846662
  H      -0.787477     -2.034062      0.803126
  N      -2.547090     -1.934714     -2.121835
  O      -2.278781     -1.684169     -3.295412
  O      -3.484111     -2.658639     -1.755560
  N       1.132912      0.068496      0.524239
  C       2.079117     -1.064913      0.670271
  C       2.573698     -1.164526      2.102204
  C       3.158028      0.164058      2.585306
  C       2.176334      1.310916      2.333725
  C       1.766201      1.341699      0.862179
  H       1.038472      2.140510      0.674044
  H       2.665123      1.555123      0.251664
  H       2.629889      2.262380      2.623828
  H       1.274600      1.174587      2.946381
  H       3.316483     -1.964009      2.192766
  H       1.717277     -1.435902      2.730634
  H       2.897245     -0.946765     -0.058921
  H      -0.626234     -1.389848     -1.517104
  H       0.886155      0.020637     -0.454246
  H       1.520731     -1.955655      0.382522
  H       3.415234      0.107461      3.644060
  H       4.091390      0.361578      2.044671
  H      -4.342136      2.278956      0.139760
  H       1.875793     -1.474415     -2.702076
  H       1.630586     -0.003538     -2.483348
  O       1.150680     -0.837060     -2.618740
40
Coordinates from ORCA-job /home/rudenko/2025/kie/for_orca/c6h5chno2ch3_piperidine/orca/ts_opt/ts_opt E -843.631361542560
  C      -1.426865      2.401589     -1.563444
  C      -1.136774      1.050764     -1.581507
  C      -1.988781      0.124567     -0.969838
  C      -3.148130      0.570722     -0.350622
  C      -3.449875      1.930923     -0.343671
  C      -2.598191      2.842570     -0.949954
  H      -0.749341      3.107952     -2.022131
  H      -0.216871      0.656482     -1.979523
  H      -3.822589     -0.128226      0.122494
  H      -2.839426      3.896054     -0.939454
  C      -1.616077     -1.350250     -1.050707
  C      -1.701142     -2.157787      0.229141
  H      -1.792163     -3.225699     -0.002576
  H      -2.556583     -1.863121      0.848165
  H      -0.782598     -2.002767      0.805493
  N      -2.550849     -1.943904     -2.119476
  O      -2.297361     -1.680400     -3.290226
  O      -3.492887     -2.643444     -1.754481
  N       1.145232      0.052801      0.527493
  C       2.091766     -1.073330      0.679501
  C       2.583449     -1.170025      2.113733
  C       3.164042      0.159234      2.593478
  C       2.178699      1.302663      2.338000
  C       1.768916      1.329842      0.866407
  H       1.036432      2.124312      0.683071
  H       2.662455      1.550294      0.251686
  H       2.625180      2.260058      2.626692
  H       1.276130      1.162013      2.950105
  H       3.325853     -1.968103      2.203839
  H       1.730421     -1.440842      2.742732
  H       2.920207     -0.957553     -0.038011
  H      -0.636790     -1.391588     -1.528716
  H       0.888818      0.012604     -0.450528
  H       1.538564     -1.969828      0.395964
  H       3.419794      0.103949      3.652518
  H       4.095913      0.358347      2.053757
  H      -4.355287      2.276293      0.137696
  H       1.893602     -1.473656     -2.718692
  H       1.644811      0.001058     -2.521743
  O       1.168294     -0.834570     -2.646667
40
Coordinates from ORCA-job /home/rudenko/2025/kie/for_orca/c6h5chno2ch3_piperidine/orca/ts_opt/ts_opt E -843.632416206407
  C      -1.425743      2.408610     -1.561237
  C      -1.133584      1.057413     -1.577569
  C      -1.983171      0.130749     -0.966109
  C      -3.143333      0.576969     -0.346884
  C      -3.447421      1.936295     -0.341409
  C      -2.596928      2.849017     -0.948127
  H      -0.749825      3.114711     -2.023086
  H      -0.215008      0.669913     -1.988456
  H      -3.818233     -0.122158      0.124914
  H      -2.840532      3.902242     -0.940050
  C      -1.614642     -1.343795     -1.048492
  C      -1.694413     -2.146496      0.233995
  H      -1.772593     -3.216568      0.010508
  H      -2.555586     -1.857798      0.846913
  H      -0.780825     -1.979331      0.812693
  N      -2.561586     -1.935990     -2.108950
  O      -2.318630     -1.681695     -3.278109
  O      -3.492686     -2.637122     -1.741290
  N       1.148991      0.031995      0.517914
  C       2.099350     -1.087576      0.679877
  C       2.592293     -1.176996      2.114553
  C       3.157063      0.166221      2.595789
  C       2.158628      1.297745      2.336594
  C       1.756307      1.316257      0.861911
  H       1.015480      2.100278      0.678682
  H       2.645157      1.549404      0.247496
  H       2.590119      2.266323      2.630653
  H       1.250483      1.142201      2.944160
  H       3.346969     -1.967718      2.201113
  H       1.740298     -1.463100      2.747238
  H       2.933786     -0.972136     -0.030384
  H      -0.637825     -1.393937     -1.532948
  H       0.891318     -0.006536     -0.461109
  H       1.553545     -1.991025      0.399010
  H       3.409222      0.116419      3.657554
  H       4.093474      0.381405      2.056631
  H      -4.353946      2.280578      0.138327
  H       1.910992     -1.477922     -2.731322
  H       1.659415      0.000232     -2.546462
  O       1.183622     -0.837076     -2.664532
40
Coordinates from ORCA-job /home/rudenko/2025/kie/for_orca/c6h5chno2ch3_piperidine/orca/ts_opt/ts_opt E -843.630938819261
  C      -1.420051      2.406982     -1.569875
  C      -1.126090      1.055337     -1.579057
  C      -1.972278      0.131117     -0.958690
  C      -3.127167      0.578868     -0.332027
  C      -3.432095      1.938426     -0.331046
  C      -2.588865      2.849611     -0.953778
  H      -0.749366      3.113113     -2.042401
  H      -0.207616      0.661548     -1.984559
  H      -3.796044     -0.119312      0.153275
  H      -2.834187      3.903454     -0.952693
  C      -1.601503     -1.343998     -1.034106
  C      -1.687010     -2.148287      0.247628
  H      -1.771306     -3.214054      0.019163
  H      -2.546615     -1.858578      0.862251
  H      -0.772920     -1.992148      0.829564
  N      -2.531989     -1.940849     -2.108166
  O      -2.294103     -1.655577     -3.265506
  O      -3.463092     -2.633956     -1.766350
  N       1.139898      0.041676      0.505011
  C       2.089451     -1.079374      0.666355
  C       2.580927     -1.177523      2.100394
  C       3.143085      0.163705      2.590650
  C       2.141801      1.294597      2.336803
  C       1.748007      1.321741      0.857885
  H       1.012750      2.106093      0.671836
  H       2.639096      1.554486      0.251412
  H       2.569000      2.264810      2.644788
  H       1.229369      1.128461      2.939437
  H       3.334343     -1.968137      2.185073
  H       1.728443     -1.466959      2.729375
  H       2.920034     -0.959200     -0.047323
  H      -0.624239     -1.396545     -1.513547
  H       0.892704     -0.006638     -0.477351
  H       1.539953     -1.978356      0.377768
  H       3.393623      0.107423      3.654246
  H       4.080745      0.384731      2.053622
  H      -4.333674      2.283384      0.156674
  H       1.892590     -1.486564     -2.736493
  H       1.641479     -0.014660     -2.528559
  O       1.162914     -0.848848     -2.651685
40
Coordinates from ORCA-job /home/rudenko/2025/kie/for_orca/c6h5chno2ch3_piperidine/orca/ts_opt/ts_opt E -843.631803611932
  C      -1.435162      2.407121     -1.579255
  C      -1.140046      1.055231     -1.584420
  C      -1.988286      0.130645     -0.966423
  C      -3.145468      0.577843     -0.343080
  C      -3.450970      1.937702     -0.344946
  C      -2.606460      2.849540     -0.967854
  H      -0.763790      3.113143     -2.052967
  H      -0.221690      0.660780     -1.988376
  H      -3.815599     -0.121227      0.141004
  H      -2.853158      3.903879     -0.970571
  C      -1.616551     -1.344044     -1.042137
  C      -1.693960     -2.145188      0.242079
  H      -1.771587     -3.207232      0.019413
  H      -2.550552     -1.860880      0.854154
  H      -0.782118     -1.985065      0.820605
  N      -2.552772     -1.941190     -2.109014
  O      -2.300305     -1.692233     -3.268718
  O      -3.494504     -2.613198     -1.761579
  N       1.153014      0.041599      0.519837
  C       2.103459     -1.079310      0.674612
  C       2.596469     -1.181347      2.108811
  C       3.160391      0.159622      2.604052
  C       2.163636      1.293721      2.350875
  C       1.764387      1.320974      0.873707
  H       1.031313      2.106689      0.692191
  H       2.651907      1.551087      0.263363
  H       2.596231      2.260725      2.653145
  H       1.254702      1.135043      2.956621
  H       3.350288     -1.973335      2.187977
  H       1.744367     -1.473658      2.739698
  H       2.936000     -0.958113     -0.036932
  H      -0.640976     -1.393824     -1.525431
  H       0.895103      0.002375     -0.460761
  H       1.557116     -1.979881      0.386282
  H       3.407159      0.101390      3.669157
  H       4.101027      0.380006      2.069808
  H      -4.354364      2.282890      0.139700
  H       1.898044     -1.478616     -2.746631
  H       1.645136     -0.004498     -2.549070
  O       1.168568     -0.839165     -2.668928
40
Coordinates from ORCA-job /home/rudenko/2025/kie/for_orca/c6h5chno2ch3_piperidine/orca/ts_opt/ts_opt E -843.632618730675
  C      -1.447617      2.404757     -1.572423
  C      -1.153948      1.053266     -1.582192
  C      -2.006792      0.127241     -0.975909
  C      -3.169940      0.572804     -0.361026
  C      -3.475186      1.932254     -0.360667
  C      -2.623837      2.845149     -0.969440
  H      -0.771279      3.111284     -2.034867
  H      -0.233736      0.656674     -1.978750
  H      -3.844203     -0.127133      0.113291
  H      -2.869833      3.899017     -0.968632
  C      -1.630434     -1.346280     -1.051857
  C      -1.712087     -2.147588      0.232489
  H      -1.799123     -3.212774      0.010953
  H      -2.566381     -1.854864      0.844128
  H      -0.799206     -1.995643      0.810483
  N      -2.560430     -1.949593     -2.120089
  O      -2.304764     -1.696011     -3.285254
  O      -3.508194     -2.626826     -1.763038
  N       1.168782      0.051697      0.535812
  C       2.114800     -1.072448      0.685774
  C       2.604400     -1.179185      2.120940
  C       3.179561      0.154917      2.614106
  C       2.196849      1.299321      2.355143
  C       1.790635      1.327757      0.881432
  H       1.061892      2.122493      0.701126
  H       2.681999      1.547587      0.266997
  H       2.643622      2.256829      2.644895
  H       1.292865      1.160361      2.964271
  H       3.351808     -1.976228      2.200224
  H       1.749840     -1.464781      2.750525
  H       2.951270     -0.949930     -0.022243
  H      -0.652245     -1.390505     -1.530327
  H       0.904321      0.018138     -0.441497
  H       1.566057     -1.970351      0.395163
  H       3.425191      0.096204      3.678263
  H       4.120174      0.361560      2.082241
  H      -4.383112      2.276776      0.116311
  H       1.897297     -1.476760     -2.759412
  H       1.642516     -0.001388     -2.551886
  O       1.168471     -0.837802     -2.675056
40
Coordinates from ORCA-job /home/rudenko/2025/kie/for_orca/c6h5chno2ch3_piperidine/orca/ts_opt/ts_opt E -843.633832851203
  C      -1.465387      2.406178     -1.579101
  C      -1.168316      1.053789     -1.585486
  C      -2.023055      0.127266     -0.985608
  C      -3.190579      0.571131     -0.375154
  C      -3.497517      1.929391     -0.375030
  C      -2.644340      2.844800     -0.981187
  H      -0.787656      3.113527     -2.039474
  H      -0.247684      0.659545     -1.985417
  H      -3.866140     -0.130936      0.096489
  H      -2.891692      3.898448     -0.981255
  C      -1.645603     -1.344049     -1.060675
  C      -1.715921     -2.135858      0.230503
  H      -1.798929     -3.203574      0.018929
  H      -2.569888     -1.840538      0.846580
  H      -0.798570     -1.975019      0.802749
  N      -2.576981     -1.956449     -2.120999
  O      -2.321591     -1.712096     -3.286574
  O      -3.532875     -2.610882     -1.760585
  N       1.186027      0.045471      0.547525
  C       2.131181     -1.074593      0.696849
  C       2.618390     -1.181146      2.134504
  C       3.196894      0.147765      2.624892
  C       2.216374      1.294679      2.366537
  C       1.805173      1.322554      0.894253
  H       1.076255      2.115672      0.718015
  H       2.691212      1.543089      0.275910
  H       2.664063      2.254792      2.653959
  H       1.313568      1.156476      2.979462
  H       3.361037     -1.978469      2.215156
  H       1.768304     -1.460248      2.763697
  H       2.975074     -0.951948     -0.001751
  H      -0.670825     -1.389133     -1.543306
  H       0.909594      0.022360     -0.426923
  H       1.589399     -1.976778      0.406857
  H       3.441983      0.087215      3.688729
  H       4.134692      0.350211      2.093813
  H      -4.407770      2.271960      0.099025
  H       1.908153     -1.470455     -2.776933
  H       1.652194      0.006614     -2.586974
  O       1.181752     -0.830763     -2.702001
40
Coordinates from ORCA-job /home/rudenko/2025/kie/for_orca/c6h5chno2ch3_piperidine/orca/ts_opt/ts_opt E -843.634993768660
  C      -1.479948      2.408359     -1.573534
  C      -1.183374      1.055298     -1.583078
  C      -2.043869      0.127805     -0.995339
  C      -3.218700      0.570662     -0.395301
  C      -3.525151      1.928634     -0.393311
  C      -2.663647      2.845714     -0.984780
  H      -0.796957      3.116172     -2.024272
  H      -0.261761      0.663871     -1.984669
  H      -3.900216     -0.132639      0.064506
  H      -2.910280      3.899577     -0.982125
  C      -1.664878     -1.342081     -1.071322
  C      -1.729095     -2.130674      0.221930
  H      -1.798977     -3.196461      0.019010
  H      -2.582685     -1.843750      0.828165
  H      -0.819318     -1.962872      0.794197
  N      -2.600642     -1.960208     -2.123928
  O      -2.339397     -1.737730     -3.294874
  O      -3.563475     -2.606303     -1.750379
  N       1.205962      0.040880      0.562551
  C       2.149426     -1.078050      0.709781
  C       2.637158     -1.184721      2.147871
  C       3.217049      0.147831      2.638741
  C       2.241831      1.297680      2.375083
  C       1.824808      1.320037      0.905220
  H       1.095006      2.113984      0.729342
  H       2.709367      1.537924      0.281708
  H       2.695087      2.254510      2.651462
  H       1.343006      1.170192      2.990867
  H       3.382469     -1.982950      2.224436
  H       1.785156     -1.469275      2.780297
  H       2.999415     -0.956544      0.018593
  H      -0.690544     -1.386282     -1.555259
  H       0.917702      0.028313     -0.407521
  H       1.612836     -1.982906      0.421367
  H       3.459089      0.089166      3.703809
  H       4.159061      0.349821      2.109085
  H      -4.440953      2.270708      0.071252
  H       1.919806     -1.468776     -2.791722
  H       1.663474      0.012355     -2.614235
  O       1.196155     -0.827269     -2.723625
40
Coordinates from ORCA-job /home/rudenko/2025/kie/for_orca/c6h5chno2ch3_piperidine/orca/ts_opt/ts_opt E -843.635868599304
  C      -1.487866      2.410150     -1.570279
  C      -1.189805      1.057070     -1.581119
  C      -2.053350      0.128546     -1.002160
  C      -3.232246      0.569442     -0.408071
  C      -3.539540      1.926212     -0.404450
  C      -2.674229      2.845518     -0.987089
  H      -0.801929      3.118782     -2.014745
  H      -0.268547      0.672880     -1.989923
  H      -3.916915     -0.135714      0.044365
  H      -2.921403      3.898832     -0.982363
  C      -1.677217     -1.340599     -1.079289
  C      -1.732051     -2.119104      0.220778
  H      -1.805825     -3.196210      0.025744
  H      -2.588926     -1.820063      0.839698
  H      -0.810948     -1.936877      0.784811
  N      -2.623375     -1.962743     -2.119850
  O      -2.367238     -1.754247     -3.294247
  O      -3.588479     -2.595158     -1.734686
  N       1.221139      0.025580      0.567876
  C       2.167412     -1.086929      0.719027
  C       2.648791     -1.185435      2.161995
  C       3.225461      0.146332      2.646532
  C       2.248200      1.293571      2.380173
  C       1.827457      1.310556      0.912860
  H       1.089976      2.097755      0.738624
  H       2.707982      1.537230      0.286234
  H       2.698583      2.252216      2.650904
  H       1.352264      1.166505      2.998125
  H       3.394837     -1.979261      2.245447
  H       1.799812     -1.465909      2.792660
  H       3.026809     -0.962761      0.037622
  H      -0.706616     -1.387666     -1.571005
  H       0.924079      0.022957     -0.399951
  H       1.642170     -2.000302      0.429957
  H       3.468556      0.090806      3.710036
  H       4.162563      0.345459      2.116987
  H      -4.458688      2.266233      0.054175
  H       1.940067     -1.463473     -2.814243
  H       1.680928      0.026499     -2.654922
  O       1.218108     -0.816678     -2.756238
40
Coordinates from ORCA-job /home/rudenko/2025/kie/for_orca/c6h5chno2ch3_piperidine/orca/ts_opt/ts_opt E -843.636078649352
  C      -1.499526      2.410316     -1.574419
  C      -1.201594      1.056372     -1.582363
  C      -2.071024      0.128473     -1.008972
  C      -3.253321      0.569379     -0.421321
  C      -3.558980      1.926757     -0.418913
  C      -2.688963      2.846088     -0.997591
  H      -0.810806      3.119353     -2.016254
  H      -0.278006      0.670965     -1.987442
  H      -3.941331     -0.136321      0.026811
  H      -2.935420      3.899970     -0.994004
  C      -1.694763     -1.339387     -1.084272
  C      -1.746355     -2.117025      0.216042
  H      -1.814088     -3.187163      0.024273
  H      -2.599479     -1.824665      0.828735
  H      -0.830316     -1.936054      0.780285
  N      -2.644528     -1.960037     -2.122348
  O      -2.376059     -1.785317     -3.294682
  O      -3.611281     -2.586628     -1.737474
  N       1.239448      0.028709      0.577222
  C       2.185492     -1.084491      0.726691
  C       2.667466     -1.187566      2.169066
  C       3.244055      0.145249      2.657843
  C       2.265588      1.294514      2.397155
  C       1.847733      1.312858      0.927338
  H       1.112275      2.100033      0.753419
  H       2.728568      1.537867      0.301871
  H       2.716418      2.258801      2.674479
  H       1.364014      1.161688      3.016833
  H       3.415097     -1.982128      2.249597
  H       1.818742     -1.470934      2.800199
  H       3.047628     -0.957472      0.051030
  H      -0.723489     -1.385749     -1.575387
  H       0.935722      0.031961     -0.389558
  H       1.664186     -1.997465      0.431887
  H       3.485200      0.086670      3.721816
  H       4.184669      0.349087      2.128561
  H      -4.480392      2.267652      0.035272
  H       1.939066     -1.466679     -2.839618
  H       1.680155      0.022162     -2.675765
  O       1.218198     -0.819839     -2.776041
40
Coordinates from ORCA-job /home/rudenko/2025/kie/for_orca/c6h5chno2ch3_piperidine/orca/ts_opt/ts_opt E -843.636437769570
  C      -1.512101      2.408994     -1.568939
  C      -1.212890      1.055223     -1.579215
  C      -2.086083      0.126012     -1.016720
  C      -3.274100      0.565023     -0.437906
  C      -3.581102      1.921567     -0.434444
  C      -2.706261      2.842661     -1.001389
  H      -0.819981      3.119521     -2.001201
  H      -0.286452      0.672801     -1.980462
  H      -3.964763     -0.142277      0.002354
  H      -2.953256      3.896293     -0.996262
  C      -1.706891     -1.340737     -1.088672
  C      -1.759382     -2.112904      0.215590
  H      -1.835899     -3.187592      0.028051
  H      -2.610975     -1.809871      0.833592
  H      -0.838434     -1.933108      0.775917
  N      -2.649100     -1.972582     -2.126570
  O      -2.378994     -1.791602     -3.302027
  O      -3.626351     -2.584417     -1.738342
  N       1.257423      0.034315      0.586821
  C       2.201189     -1.079662      0.731340
  C       2.673411     -1.188755      2.177502
  C       3.254414      0.140398      2.671981
  C       2.289564      1.296360      2.402979
  C       1.867106      1.316596      0.937061
  H       1.135588      2.107915      0.761975
  H       2.748771      1.536208      0.311453
  H       2.751288      2.246263      2.667400
  H       1.397662      1.183754      3.021406
  H       3.417881     -1.985193      2.258424
  H       1.819508     -1.473022      2.804105
  H       3.069907     -0.947620      0.062654
  H      -0.735440     -1.385261     -1.577388
  H       0.949536      0.044238     -0.376644
  H       1.683877     -1.992559      0.428838
  H       3.490454      0.080366      3.737906
  H       4.197212      0.335968      2.148763
  H      -4.506633      2.260713      0.012249
  H       1.939730     -1.466228     -2.866026
  H       1.680193      0.022684     -2.692435
  O       1.220373     -0.820482     -2.793719
40
Coordinates from ORCA-job /home/rudenko/2025/kie/for_orca/c6h5chno2ch3_piperidine/orca/ts_opt/ts_opt E -843.636700661500
  C      -1.522846      2.408749     -1.566146
  C      -1.223144      1.054411     -1.576530
  C      -2.102045      0.125434     -1.022725
  C      -3.294943      0.563957     -0.452235
  C      -3.601296      1.920521     -0.447862
  C      -2.720817      2.842219     -1.005987
  H      -0.826893      3.120083     -1.991316
  H      -0.292895      0.675113     -1.975000
  H      -3.989499     -0.144347     -0.019285
  H      -2.966939      3.896129     -0.999599
  C      -1.722964     -1.339786     -1.093428
  C      -1.774985     -2.109934      0.211684
  H      -1.845714     -3.181310      0.028213
  H      -2.625057     -1.811182      0.821993
  H      -0.859640     -1.928088      0.773181
  N      -2.665109     -1.973386     -2.129856
  O      -2.388465     -1.806935     -3.305485
  O      -3.645003     -2.582509     -1.739343
  N       1.277437      0.036468      0.593522
  C       2.219336     -1.077235      0.740577
  C       2.688600     -1.187584      2.186973
  C       3.272848      0.137708      2.678618
  C       2.305958      1.296812      2.414783
  C       1.887747      1.318686      0.945823
  H       1.154947      2.109970      0.769793
  H       2.772348      1.539178      0.321203
  H       2.767273      2.256991      2.689156
  H       1.403829      1.174654      3.035908
  H       3.429427     -1.985887      2.272230
  H       1.836128     -1.464676      2.811385
  H       3.091991     -0.945087      0.079619
  H      -0.751202     -1.384811     -1.581544
  H       0.964375      0.051663     -0.368560
  H       1.705165     -1.988787      0.433863
  H       3.509316      0.075423      3.742976
  H       4.215318      0.331993      2.154445
  H      -4.530316      2.259471     -0.007402
  H       1.940792     -1.473184     -2.893391
  H       1.683035      0.015754     -2.714715
  O       1.223901     -0.826661     -2.815536
40
Coordinates from ORCA-job /home/rudenko/2025/kie/for_orca/c6h5chno2ch3_piperidine/orca/ts_opt/ts_opt E -843.637137721424
  C      -1.535590      2.411134     -1.563242
  C      -1.233021      1.056699     -1.572812
  C      -2.115264      0.126471     -1.028388
  C      -3.313514      0.563259     -0.466866
  C      -3.621852      1.919029     -0.462651
  C      -2.737800      2.842880     -1.012051
  H      -0.836904      3.123922     -1.981453
  H      -0.299738      0.685255     -1.972236
  H      -4.010466     -0.147001     -0.040800
  H      -2.984989      3.896578     -1.005703
  C      -1.735669     -1.338403     -1.095863
  C      -1.782239     -2.101605      0.213859
  H      -1.846352     -3.174403      0.037345
  H      -2.633816     -1.803740      0.823917
  H      -0.867396     -1.909124      0.773193
  N      -2.679297     -1.980067     -2.125953
  O      -2.403345     -1.821979     -3.303472
  O      -3.663682     -2.576839     -1.729626
  N       1.296677      0.032933      0.598552
  C       2.238838     -1.079408      0.744338
  C       2.697991     -1.192791      2.195128
  C       3.279625      0.135725      2.694460
  C       2.319983      1.295895      2.422977
  C       1.899867      1.316488      0.956329
  H       1.166929      2.105358      0.778600
  H       2.782211      1.539263      0.332929
  H       2.786098      2.244521      2.686456
  H       1.427020      1.187900      3.041266
  H       3.441041     -1.990705      2.281054
  H       1.837999     -1.477507      2.815608
  H       3.118480     -0.943722      0.091761
  H      -0.765898     -1.385635     -1.586653
  H       0.978969      0.055608     -0.361054
  H       1.733206     -1.994186      0.431085
  H       3.510793      0.073806      3.761700
  H       4.226622      0.330632      2.174821
  H      -4.554831      2.255895     -0.029427
  H       1.950041     -1.473582     -2.924467
  H       1.693270      0.017162     -2.747460
  O       1.236002     -0.825712     -2.845201
40
Coordinates from ORCA-job /home/rudenko/2025/kie/for_orca/c6h5chno2ch3_piperidine/orca/ts_opt/ts_opt E -843.637430009359
  C      -1.543249      2.412363     -1.558072
  C      -1.238753      1.058076     -1.568089
  C      -2.124467      0.127256     -1.031422
  C      -3.326724      0.562793     -0.476915
  C      -3.636223      1.918001     -0.472008
  C      -2.748657      2.843058     -1.013202
  H      -0.841948      3.126198     -1.969778
  H      -0.301993      0.694936     -1.968661
  H      -4.026277     -0.148824     -0.057875
  H      -2.996252      3.896589     -1.006101
  C      -1.747039     -1.337011     -1.098412
  C      -1.791696     -2.095298      0.214002
  H      -1.849449     -3.171014      0.042501
  H      -2.646556     -1.798276      0.821236
  H      -0.879243     -1.891240      0.773351
  N      -2.695464     -1.979957     -2.123101
  O      -2.420736     -1.830959     -3.302507
  O      -3.679695     -2.574630     -1.719916
  N       1.314973      0.028185      0.599043
  C       2.257395     -1.081783      0.750861
  C       2.708242     -1.192244      2.204211
  C       3.288650      0.133773      2.699915
  C       2.325240      1.293669      2.429932
  C       1.910846      1.314257      0.961108
  H       1.171890      2.099206      0.781788
  H       2.795728      1.544735      0.340100
  H       2.787989      2.250518      2.700755
  H       1.424396      1.177019      3.048547
  H       3.448940     -1.989672      2.298748
  H       1.848657     -1.469832      2.819781
  H       3.142801     -0.945541      0.106795
  H      -0.778697     -1.387743     -1.592657
  H       0.994827      0.055581     -0.359730
  H       1.758057     -1.998101      0.433301
  H       3.519765      0.072051      3.765607
  H       4.233531      0.326973      2.180573
  H      -4.572633      2.253438     -0.044845
  H       1.960013     -1.480216     -2.956071
  H       1.705307      0.013357     -2.777877
  O       1.248504     -0.829692     -2.874916
40
Coordinates from ORCA-job /home/rudenko/2025/kie/for_orca/c6h5chno2ch3_piperidine/orca/ts_opt/ts_opt E -843.637664198583
  C      -1.553122      2.416002     -1.557749
  C      -1.245115      1.061889     -1.565717
  C      -2.131774      0.129414     -1.033467
  C      -3.336966      0.563362     -0.483783
  C      -3.649209      1.917929     -0.480062
  C      -2.761251      2.845007     -1.018384
  H      -0.851318      3.131383     -1.966840
  H      -0.305315      0.707019     -1.967291
  H      -4.036756     -0.150061     -0.067260
  H      -3.010609      3.898243     -1.012941
  C      -1.754771     -1.335271     -1.097285
  C      -1.794927     -2.088102      0.218578
  H      -1.842643     -3.163423      0.051737
  H      -2.652669     -1.795861      0.823375
  H      -0.885330     -1.872241      0.778453
  N      -2.706050     -1.982763     -2.116755
  O      -2.434431     -1.839728     -3.296500
  O      -3.689007     -2.574257     -1.710112
  N       1.330781      0.026532      0.597445
  C       2.273747     -1.082879      0.751399
  C       2.712738     -1.196652      2.208764
  C       3.289368      0.131375      2.712330
  C       2.329628      1.291133      2.437336
  C       1.919602      1.313093      0.967944
  H       1.180409      2.095160      0.786314
  H       2.804472      1.547801      0.351953
  H       2.793596      2.241563      2.705783
  H       1.431938      1.180399      3.051339
  H       3.454207     -1.994208      2.306598
  H       1.845723     -1.478945      2.818009
  H       3.164898     -0.944009      0.115118
  H      -0.788218     -1.390309     -1.594399
  H       1.010582      0.057544     -0.361165
  H       1.780964     -2.000511      0.425658
  H       3.515121      0.069038      3.780324
  H       4.238463      0.326754      2.197517
  H      -4.587968      2.251139     -0.056632
  H       1.967901     -1.485360     -2.989838
  H       1.715378      0.007586     -2.805546
  O       1.257931     -0.834785     -2.904249
40
Coordinates from ORCA-job /home/rudenko/2025/kie/for_orca/c6h5chno2ch3_piperidine/orca/ts_opt/ts_opt E -843.637797153336
  C      -1.556839      2.418310     -1.553753
  C      -1.247069      1.064851     -1.562365
  C      -2.133942      0.130774     -1.032876
  C      -3.340783      0.563799     -0.486070
  C      -3.654865      1.917859     -0.482111
  C      -2.766519      2.845991     -1.016807
  H      -0.854867      3.134571     -1.960400
  H      -0.305658      0.715334     -1.965144
  H      -4.040995     -0.150424     -0.072780
  H      -3.016977      3.898803     -1.011452
  C      -1.758710     -1.334881     -1.096019
  C      -1.799039     -2.084227      0.221658
  H      -1.842440     -3.162610      0.057220
  H      -2.660521     -1.791988      0.824865
  H      -0.891327     -1.859352      0.782543
  N      -2.713758     -1.982576     -2.111817
  O      -2.445404     -1.841543     -3.293225
  O      -3.694928     -2.575251     -1.700098
  N       1.343375      0.025222      0.592333
  C       2.287152     -1.082843      0.752219
  C       2.714843     -1.196600      2.212208
  C       3.288044      0.129996      2.717352
  C       2.326307      1.288864      2.440629
  C       1.926066      1.312838      0.968608
  H       1.183471      2.092782      0.784115
  H       2.815281      1.553581      0.358651
  H       2.786620      2.243173      2.716306
  H       1.421926      1.172215      3.050433
  H       3.454701     -1.994068      2.317569
  H       1.844867     -1.475483      2.814110
  H       3.183229     -0.941721      0.123430
  H      -0.792727     -1.394274     -1.595137
  H       1.026138      0.057590     -0.367225
  H       1.798802     -2.000093      0.419220
  H       3.510476      0.067406      3.784976
  H       4.237498      0.325068      2.206172
  H      -4.595435      2.249526     -0.061421
  H       1.974962     -1.494585     -3.023030
  H       1.724322     -0.001022     -2.823137
  O       1.264724     -0.845011     -2.929749
40
Coordinates from ORCA-job /home/rudenko/2025/kie/for_orca/c6h5chno2ch3_piperidine/orca/ts_opt/ts_opt E -843.637774524109
  C      -1.558258      2.429817     -1.558366
  C      -1.236498      1.077667     -1.569726
  C      -2.112150      0.141857     -1.031647
  C      -3.315482      0.568009     -0.472127
  C      -3.643337      1.917175     -0.470862
  C      -2.767830      2.850289     -1.015490
  H      -0.867178      3.150648     -1.970889
  H      -0.297215      0.731816     -1.989212
  H      -4.004656     -0.150340     -0.049945
  H      -3.029190      3.900488     -1.014346
  C      -1.736302     -1.322069     -1.092885
  C      -1.762417     -2.059866      0.232539
  H      -1.777332     -3.133511      0.082509
  H      -2.625444     -1.787398      0.820114
  H      -0.869847     -1.816769      0.793664
  N      -2.722140     -1.980692     -2.080489
  O      -2.487283     -1.854945     -3.278643
  O      -3.712753     -2.530523     -1.621704
  N       1.346921      0.001520      0.570608
  C       2.295560     -1.095257      0.741105
  C       2.704252     -1.204082      2.211003
  C       3.257815      0.126915      2.725033
  C       2.285131      1.272868      2.434867
  C       1.907646      1.293955      0.954837
  H       1.154445      2.062319      0.761139
  H       2.801412      1.549071      0.353528
  H       2.726044      2.231464      2.721151
  H       1.371997      1.140942      3.028371
  H       3.447947     -1.993183      2.326576
  H       1.829155     -1.490200      2.801727
  H       3.201746     -0.952407      0.122716
  H      -0.777848     -1.395539     -1.603724
  H       1.031572      0.036656     -0.387178
  H       1.816824     -2.016014      0.410287
  H       3.467623      0.065763      3.797659
  H       4.210223      0.332142      2.225533
  H      -4.583949      2.240805     -0.044799
  H       1.995332     -1.496361     -3.041793
  H       1.747832      0.000815     -2.862380
  O       1.287631     -0.843841     -2.958760
40
Coordinates from ORCA-job /home/rudenko/2025/kie/for_orca/c6h5chno2ch3_piperidine/orca/ts_opt/ts_opt E -843.638282805163
  C      -1.558695      2.436210     -1.563383
  C      -1.238565      1.083497     -1.568857
  C      -2.113881      0.145161     -1.026494
  C      -3.317652      0.575849     -0.466938
  C      -3.643239      1.927760     -0.470346
  C      -2.766398      2.859818     -1.020043
  H      -0.866794      3.155149     -1.984167
  H      -0.304725      0.746322     -1.998979
  H      -4.009679     -0.140755     -0.041977
  H      -3.027262      3.911144     -1.025002
  C      -1.742468     -1.322717     -1.089330
  C      -1.761213     -2.057608      0.236990
  H      -1.766938     -3.142100      0.088902
  H      -2.636228     -1.784801      0.835031
  H      -0.859509     -1.789785      0.795832
  N      -2.724146     -1.973875     -2.076275
  O      -2.477427     -1.845758     -3.261220
  O      -3.702384     -2.547710     -1.639831
  N       1.342521     -0.015245      0.571185
  C       2.297402     -1.108784      0.745393
  C       2.716276     -1.209289      2.210102
  C       3.259371      0.131515      2.717420
  C       2.273198      1.268020      2.437077
  C       1.888622      1.285312      0.960429
  H       1.127168      2.044570      0.772077
  H       2.774305      1.553937      0.358617
  H       2.704649      2.231521      2.719607
  H       1.368231      1.127169      3.036654
  H       3.471382     -1.994163      2.319903
  H       1.847449     -1.504138      2.809258
  H       3.200087     -0.969523      0.127193
  H      -0.787542     -1.401749     -1.607912
  H       1.023129      0.019175     -0.388711
  H       1.825131     -2.038320      0.419679
  H       3.480355      0.073898      3.784750
  H       4.204754      0.348385      2.206966
  H      -4.584236      2.254834     -0.045350
  H       2.013359     -1.493971     -3.030322
  H       1.766175      0.003151     -2.881233
  O       1.305417     -0.842108     -2.966694
40
Coordinates from ORCA-job /home/rudenko/2025/kie/for_orca/c6h5chno2ch3_piperidine/orca/ts_opt/ts_opt E -843.638547212805
  C      -1.558973      2.446956     -1.567118
  C      -1.232591      1.095448     -1.576557
  C      -2.099341      0.155072     -1.028112
  C      -3.300632      0.581016     -0.460673
  C      -3.631932      1.929078     -0.459215
  C      -2.763074      2.865093     -1.013416
  H      -0.873525      3.168543     -1.991591
  H      -0.302062      0.763398     -2.020628
  H      -3.985782     -0.138325     -0.031775
  H      -3.026908      3.913922     -1.013366
  C      -1.728121     -1.311998     -1.086345
  C      -1.729982     -2.035163      0.247509
  H      -1.707741     -3.112841      0.111503
  H      -2.604450     -1.781562      0.836149
  H      -0.841886     -1.746526      0.802239
  N      -2.727432     -1.973778     -2.052809
  O      -2.502755     -1.860825     -3.249105
  O      -3.700984     -2.541731     -1.586652
  N       1.339969     -0.034189      0.555506
  C       2.298315     -1.119178      0.737466
  C       2.704585     -1.214242      2.208187
  C       3.236443      0.126953      2.718580
  C       2.243174      1.253679      2.426538
  C       1.869018      1.269508      0.947051
  H       1.099926      2.020065      0.753491
  H       2.755172      1.548437      0.350772
  H       2.661968      2.221926      2.715308
  H       1.332336      1.101648      3.016945
  H       3.458776     -1.993410      2.328424
  H       1.832520     -1.509956      2.798823
  H       3.207133     -0.980492      0.124640
  H      -0.781144     -1.403443     -1.614307
  H       1.020707      0.000780     -0.402107
  H       1.832007     -2.050801      0.416781
  H       3.447891      0.071248      3.791266
  H       4.185171      0.349398      2.216798
  H      -4.570445      2.249903     -0.026850
  H       2.032080     -1.493377     -3.031140
  H       1.786943      0.007935     -2.909003
  O       1.325625     -0.838171     -2.983208
40
Coordinates from ORCA-job /home/rudenko/2025/kie/for_orca/c6h5chno2ch3_piperidine/orca/ts_opt/ts_opt E -843.638737481429
  C      -1.556530      2.452408     -1.578152
  C      -1.228812      1.101080     -1.585471
  C      -2.089873      0.159638     -1.026609
  C      -3.284937      0.587320     -0.446673
  C      -3.617606      1.936582     -0.447499
  C      -2.755991      2.872068     -1.015320
  H      -0.876266      3.172780     -2.014208
  H      -0.303267      0.772389     -2.039704
  H      -3.965204     -0.131110     -0.006924
  H      -3.021806      3.921939     -1.019539
  C      -1.721352     -1.309329     -1.084299
  C      -1.714942     -2.026369      0.251030
  H      -1.681135     -3.109739      0.118543
  H      -2.595706     -1.777076      0.843830
  H      -0.824767     -1.716133      0.799845
  N      -2.727129     -1.970527     -2.041050
  O      -2.506566     -1.861669     -3.236710
  O      -3.700020     -2.532839     -1.570461
  N       1.328509     -0.051943      0.550295
  C       2.294653     -1.131480      0.734018
  C       2.707645     -1.219744      2.202055
  C       3.223676      0.131054      2.710802
  C       2.214141      1.245890      2.426444
  C       1.842690      1.258894      0.946726
  H       1.065078      2.000899      0.752587
  H       2.728614      1.550045      0.354009
  H       2.618894      2.217506      2.715432
  H       1.307886      1.080895      3.017016
  H       3.474431     -1.992159      2.316794
  H       1.840362     -1.528072      2.798018
  H       3.201256     -0.991812      0.119008
  H      -0.778106     -1.408936     -1.619531
  H       1.008704     -0.019775     -0.408197
  H       1.833586     -2.070272      0.417346
  H       3.442635      0.076964      3.778807
  H       4.165588      0.367706      2.202722
  H      -4.552359      2.258726     -0.006670
  H       2.051675     -1.491413     -3.008936
  H       1.807268      0.011248     -2.918155
  O       1.345084     -0.835634     -2.981217
40
Coordinates from ORCA-job /home/rudenko/2025/kie/for_orca/c6h5chno2ch3_piperidine/orca/ts_opt/ts_opt E -843.638864313935
  C      -1.556281      2.459960     -1.588498
  C      -1.224099      1.109321     -1.595928
  C      -2.075509      0.167665     -1.025341
  C      -3.266522      0.593881     -0.435353
  C      -3.603445      1.940864     -0.435276
  C      -2.750316      2.877541     -1.013282
  H      -0.883320      3.180839     -2.034062
  H      -0.303355      0.781164     -2.061998
  H      -3.940022     -0.125160      0.012071
  H      -3.018259      3.925896     -1.015881
  C      -1.706909     -1.299735     -1.077146
  C      -1.685926     -2.009109      0.263986
  H      -1.631119     -3.087910      0.138731
  H      -2.566388     -1.774585      0.853814
  H      -0.802950     -1.682801      0.809529
  N      -2.716876     -1.967733     -2.025665
  O      -2.507624     -1.854581     -3.221466
  O      -3.674864     -2.552240     -1.550837
  N       1.314837     -0.064390      0.538935
  C       2.282756     -1.138039      0.724002
  C       2.693887     -1.224665      2.194032
  C       3.205189      0.124156      2.703939
  C       2.190401      1.232465      2.415285
  C       1.818507      1.247256      0.935155
  H       1.038109      1.984428      0.740327
  H       2.701324      1.543993      0.344980
  H       2.587844      2.207547      2.708835
  H       1.283441      1.058496      3.003399
  H       3.458339     -1.993790      2.313123
  H       1.827515     -1.532342      2.786715
  H       3.188344     -0.998792      0.107497
  H      -0.769897     -1.409989     -1.618575
  H       0.995246     -0.037060     -0.418652
  H       1.822303     -2.077031      0.413248
  H       3.420758      0.069300      3.775992
  H       4.147761      0.365133      2.199359
  H      -4.534351      2.260309      0.014802
  H       2.064198     -1.486431     -2.983264
  H       1.820224      0.016533     -2.923163
  O       1.357048     -0.830363     -2.973367
40
Coordinates from ORCA-job /home/rudenko/2025/kie/for_orca/c6h5chno2ch3_piperidine/orca/ts_opt/ts_opt E -843.638950282527
  C      -1.556558      2.463684     -1.607718
  C      -1.220875      1.114094     -1.614467
  C      -2.063583      0.171952     -1.027992
  C      -3.244478      0.598476     -0.419332
  C      -3.584020      1.945699     -0.419974
  C      -2.743401      2.881480     -1.017639
  H      -0.892716      3.184428     -2.067647
  H      -0.304257      0.788702     -2.088772
  H      -3.908012     -0.120067      0.044948
  H      -3.014193      3.929752     -1.023115
  C      -1.696562     -1.297032     -1.077460
  C      -1.665787     -1.998176      0.265733
  H      -1.603199     -3.081552      0.144108
  H      -2.548148     -1.765399      0.864396
  H      -0.779309     -1.650599      0.797355
  N      -2.719391     -1.966533     -2.010208
  O      -2.511779     -1.882280     -3.213415
  O      -3.688782     -2.520375     -1.514434
  N       1.301734     -0.078657      0.533543
  C       2.278565     -1.147462      0.716233
  C       2.692795     -1.231230      2.184063
  C       3.187499      0.125254      2.698542
  C       2.159116      1.223389      2.418300
  C       1.794727      1.238510      0.936900
  H       1.008042      1.970147      0.740312
  H       2.680870      1.544219      0.352491
  H       2.543555      2.201169      2.717699
  H       1.253001      1.034916      3.003376
  H       3.468889     -1.993843      2.297622
  H       1.828957     -1.552925      2.778167
  H       3.182045     -1.003330      0.097317
  H      -0.762793     -1.413901     -1.625635
  H       0.982023     -0.052225     -0.424827
  H       1.823785     -2.091717      0.405590
  H       3.406047      0.069032      3.766794
  H       4.125709      0.380461      2.192626
  H      -4.507471      2.265692      0.044912
  H       2.080867     -1.480883     -2.955034
  H       1.840973      0.021884     -2.926555
  O       1.376117     -0.824757     -2.966803
40
Coordinates from ORCA-job /home/rudenko/2025/kie/for_orca/c6h5chno2ch3_piperidine/orca/ts_opt/ts_opt E -843.638957693708
  C      -1.566491      2.471207     -1.633372
  C      -1.220737      1.122995     -1.631514
  C      -2.046797      0.182318     -1.022406
  C      -3.218850      0.608887     -0.395688
  C      -3.568484      1.953121     -0.404469
  C      -2.746213      2.887969     -1.028536
  H      -0.918107      3.191311     -2.115006
  H      -0.309474      0.798230     -2.119444
  H      -3.867968     -0.108703      0.088062
  H      -3.026032      3.934195     -1.043916
  C      -1.678996     -1.284149     -1.063931
  C      -1.634275     -1.975859      0.285509
  H      -1.551382     -3.056161      0.172576
  H      -2.515439     -1.756570      0.881937
  H      -0.754401     -1.609871      0.811627
  N      -2.701843     -1.960526     -1.991261
  O      -2.496387     -1.875303     -3.189362
  O      -3.657114     -2.536392     -1.499192
  N       1.289462     -0.088247      0.520589
  C       2.269347     -1.151134      0.701268
  C       2.677249     -1.241909      2.172232
  C       3.164141      0.110124      2.694913
  C       2.130748      1.203385      2.413275
  C       1.770125      1.228073      0.929873
  H       0.981302      1.956787      0.733498
  H       2.656169      1.542363      0.351470
  H       2.507282      2.180816      2.721509
  H       1.224245      1.004482      2.992658
  H       3.452013     -2.001437      2.287980
  H       1.812955     -1.566982      2.758604
  H       3.173443     -1.001064      0.083202
  H      -0.753070     -1.414828     -1.619154
  H       0.971488     -0.067505     -0.437152
  H       1.816844     -2.095151      0.388370
  H       3.378741      0.047795      3.765757
  H       4.101777      0.371379      2.194891
  H      -4.485327      2.271436      0.074520
  H       2.096704     -1.477910     -2.935134
  H       1.854667      0.024738     -2.933761
  O       1.388685     -0.821913     -2.961022
40
Coordinates from ORCA-job /home/rudenko/2025/kie/for_orca/c6h5chno2ch3_piperidine/orca/ts_opt/ts_opt E -843.638995680551
  C      -1.572931      2.468819     -1.632711
  C      -1.226916      1.120894     -1.630554
  C      -2.056539      0.179864     -1.025393
  C      -3.231675      0.605614     -0.404238
  C      -3.581013      1.949956     -0.413476
  C      -2.755452      2.884966     -1.032929
  H      -0.922083      3.189809     -2.110078
  H      -0.312766      0.797068     -2.112418
  H      -3.882924     -0.112600      0.076369
  H      -3.034679      3.931016     -1.048295
  C      -1.687230     -1.287202     -1.066568
  C      -1.647034     -1.980394      0.281988
  H      -1.572070     -3.062019      0.166805
  H      -2.527782     -1.754874      0.881317
  H      -0.763202     -1.619380      0.807820
  N      -2.707705     -1.964091     -1.996196
  O      -2.493811     -1.890995     -3.196197
  O      -3.672608     -2.526109     -1.502574
  N       1.300871     -0.078173      0.526255
  C       2.278313     -1.144780      0.703713
  C       2.681987     -1.241716      2.174584
  C       3.173953      0.107929      2.702547
  C       2.147803      1.208035      2.422081
  C       1.789093      1.235779      0.938551
  H       1.004653      1.969030      0.742394
  H       2.677411      1.544949      0.361434
  H       2.530852      2.183828      2.732841
  H       1.238446      1.013747      3.000677
  H       3.453578     -2.005353      2.290171
  H       1.813877     -1.565166      2.757482
  H       3.183579     -0.993081      0.088890
  H      -0.757651     -1.413245     -1.617496
  H       0.982392     -0.053501     -0.431396
  H       1.825688     -2.086524      0.383634
  H       3.384998      0.042586      3.773617
  H       4.115246      0.365812      2.205711
  H      -4.499968      2.268134      0.061568
  H       2.090252     -1.481264     -2.953677
  H       1.849580      0.018950     -2.936439
  O       1.383468     -0.826319     -2.969815
40
Coordinates from ORCA-job /home/rudenko/2025/kie/for_orca/c6h5chno2ch3_piperidine/orca/ts_opt/ts_opt E -843.638903176480
  C      -1.582045      2.469378     -1.655371
  C      -1.228327      1.123105     -1.643782
  C      -2.047957      0.183790     -1.022548
  C      -3.216112      0.609862     -0.389083
  C      -3.572181      1.952411     -0.406519
  C      -2.760719      2.885135     -1.047619
  H      -0.941991      3.189466     -2.148010
  H      -0.316172      0.796543     -2.128079
  H      -3.856259     -0.106874      0.108380
  H      -3.047152      3.929241     -1.072499
  C      -1.677210     -1.282473     -1.059676
  C      -1.637927     -1.972601      0.290365
  H      -1.563826     -3.055775      0.177597
  H      -2.518435     -1.744970      0.890729
  H      -0.753201     -1.609271      0.813350
  N      -2.698164     -1.960874     -1.988747
  O      -2.479919     -1.898201     -3.189386
  O      -3.665600     -2.517973     -1.492014
  N       1.295811     -0.075828      0.522770
  C       2.274678     -1.142107      0.693574
  C       2.676604     -1.249134      2.164030
  C       3.163872      0.098656      2.702823
  C       2.136445      1.199542      2.428336
  C       1.782305      1.236842      0.943053
  H       0.998675      1.971742      0.748444
  H       2.673714      1.549253      0.370619
  H       2.517232      2.172374      2.746715
  H       1.226971      1.000036      3.003218
  H       3.450034     -2.012477      2.274476
  H       1.807323     -1.580017      2.743037
  H       3.179235     -0.983874      0.078664
  H      -0.748380     -1.412293     -1.610873
  H       0.979436     -0.053258     -0.435283
  H       1.822466     -2.082789      0.367112
  H       3.373391      0.025408      3.773207
  H       4.105169      0.362521      2.209155
  H      -4.485408      2.270788      0.078817
  H       2.094954     -1.478981     -2.944731
  H       1.852786      0.019652     -2.932133
  O       1.385885     -0.825974     -2.962119
40
Coordinates from ORCA-job /home/rudenko/2025/kie/for_orca/c6h5chno2ch3_piperidine/orca/ts_opt/ts_opt E -843.639003001660
  C      -1.558256      2.461539     -1.610845
  C      -1.223563      1.111420     -1.616192
  C      -2.065085      0.171103     -1.027167
  C      -3.244769      0.598865     -0.417266
  C      -3.583468      1.946275     -0.418470
  C      -2.744071      2.880878     -1.019446
  H      -0.895387      3.181222     -2.073372
  H      -0.306920      0.781375     -2.086215
  H      -3.907163     -0.118751      0.049489
  H      -3.014200      3.929502     -1.025637
  C      -1.696527     -1.296551     -1.074850
  C      -1.671933     -1.999569      0.268160
  H      -1.610620     -3.081664      0.146250
  H      -2.553877     -1.766416      0.859750
  H      -0.789112     -1.659753      0.806676
  N      -2.710373     -1.967007     -2.017035
  O      -2.500959     -1.867431     -3.215057
  O      -3.672971     -2.537984     -1.534556
  N       1.299731     -0.071034      0.535589
  C       2.275370     -1.141344      0.714957
  C       2.691371     -1.231329      2.182463
  C       3.189269      0.122397      2.698494
  C       2.163446      1.224288      2.419137
  C       1.797052      1.243399      0.937500
  H       1.013630      1.979501      0.741042
  H       2.686305      1.545623      0.353124
  H       2.552443      2.197008      2.715560
  H       1.260159      1.041383      3.005219
  H       3.466425     -1.995631      2.293397
  H       1.827260     -1.553209      2.776617
  H       3.177685     -0.993015      0.093658
  H      -0.760648     -1.413344     -1.618033
  H       0.982537     -0.048463     -0.423121
  H       1.817030     -2.082890      0.399937
  H       3.409444      0.063293      3.766345
  H       4.127353      0.375839      2.192074
  H      -4.504929      2.267295      0.048971
  H       2.078114     -1.485434     -2.954547
  H       1.832183      0.018118     -2.914737
  O       1.368026     -0.829507     -2.957865
40
Coordinates from ORCA-job /home/rudenko/2025/kie/for_orca/c6h5chno2ch3_piperidine/orca/ts_opt/ts_opt E -843.639002068245
  C      -1.547198      2.459874     -1.570086
  C      -1.226234      1.107557     -1.598519
  C      -2.086758      0.163874     -1.040552
  C      -3.279572      0.590463     -0.454455
  C      -3.605920      1.940664     -0.436206
  C      -2.739728      2.879017     -0.991884
  H      -0.864431      3.181753     -2.000292
  H      -0.303173      0.786608     -2.063355
  H      -3.962091     -0.130169     -0.022091
  H      -2.995304      3.930354     -0.975123
  C      -1.720075     -1.305372     -1.091401
  C      -1.684600     -2.008639      0.251853
  H      -1.615171     -3.088237      0.126977
  H      -2.566541     -1.781616      0.851063
  H      -0.799412     -1.658866      0.785207
  N      -2.735198     -1.979237     -2.026742
  O      -2.528304     -1.883325     -3.228149
  O      -3.700653     -2.545885     -1.539084
  N       1.312076     -0.072453      0.544163
  C       2.284519     -1.143712      0.731432
  C       2.699791     -1.219046      2.199196
  C       3.210503      0.134737      2.701043
  C       2.192780      1.238964      2.411073
  C       1.817257      1.242665      0.933411
  H       1.037469      1.978080      0.734206
  H       2.699287      1.533312      0.342719
  H       2.590265      2.220418      2.700314
  H       1.285243      1.064362      3.003851
  H       3.465509     -1.987017      2.322317
  H       1.834765     -1.523569      2.795445
  H       3.185906     -1.006484      0.111904
  H      -0.782852     -1.414919     -1.633305
  H       0.988638     -0.043392     -0.413108
  H       1.826633     -2.085099      0.424416
  H       3.427625      0.087261      3.772929
  H       4.153137      0.375344      2.194221
  H      -4.538128      2.261140      0.011938
  H       2.069086     -1.486080     -2.964706
  H       1.832791      0.015147     -2.926370
  O       1.368065     -0.828475     -2.974249
40
Coordinates from ORCA-job /home/rudenko/2025/kie/for_orca/c6h5chno2ch3_piperidine/orca/ts_opt/ts_opt E -843.638883080176
  C      -1.531330      2.459721     -1.530936
  C      -1.225393      1.104981     -1.581357
  C      -2.101018      0.159346     -1.051924
  C      -3.298887      0.587571     -0.478868
  C      -3.611296      1.940992     -0.439016
  C      -2.726277      2.881424     -0.960341
  H      -0.832373      3.180896     -1.936146
  H      -0.298737      0.795584     -2.043851
  H      -3.995526     -0.134267     -0.071101
  H      -2.967855      3.935809     -0.922086
  C      -1.740588     -1.311999     -1.108198
  C      -1.696613     -2.010061      0.235726
  H      -1.603971     -3.089315      0.115704
  H      -2.583666     -1.797763      0.825932
  H      -0.823643     -1.638299      0.768198
  N      -2.766368     -1.985774     -2.030350
  O      -2.583576     -1.878426     -3.232661
  O      -3.724727     -2.547536     -1.533689
  N       1.323487     -0.090732      0.546747
  C       2.303375     -1.155907      0.752163
  C       2.715722     -1.208824      2.222313
  C       3.215876      0.156628      2.703554
  C       2.186509      1.249526      2.404541
  C       1.814707      1.233322      0.927413
  H       1.022869      1.959124      0.719136
  H       2.701418      1.531831      0.334908
  H       2.576187      2.230931      2.673564
  H       1.284611      1.080425      2.999840
  H       3.491603     -1.970612      2.355419
  H       1.851305     -1.512257      2.824096
  H       3.211851     -1.020328      0.136509
  H      -0.806089     -1.425472     -1.655060
  H       0.999032     -0.060348     -0.410973
  H       1.853653     -2.105394      0.449074
  H       3.440944      0.125860      3.769782
  H       4.152080      0.397120      2.188141
  H      -4.546858      2.261991     -0.000063
  H       2.085936     -1.503410     -2.997470
  H       1.848366      0.009802     -2.958002
  O       1.385261     -0.836159     -3.010668
40
Coordinates from ORCA-job /home/rudenko/2025/kie/for_orca/c6h5chno2ch3_piperidine/orca/ts_opt/ts_opt E -843.639108562618
  C      -1.545576      2.465617     -1.559847
  C      -1.227119      1.112249     -1.597909
  C      -2.090364      0.167011     -1.048355
  C      -3.282912      0.593255     -0.461291
  C      -3.606502      1.943938     -0.433087
  C      -2.737428      2.884611     -0.980205
  H      -0.859921      3.188309     -1.983886
  H      -0.302724      0.800817     -2.066733
  H      -3.966748     -0.129247     -0.034077
  H      -2.989385      3.937050     -0.955000
  C      -1.727678     -1.302582     -1.097167
  C      -1.677221     -1.993989      0.251287
  H      -1.573933     -3.071829      0.136214
  H      -2.565334     -1.787184      0.844505
  H      -0.804915     -1.609599      0.779061
  N      -2.752435     -1.982802     -2.016811
  O      -2.566885     -1.882043     -3.219527
  O      -3.706309     -2.554652     -1.516955
  N       1.317268     -0.089004      0.539965
  C       2.295565     -1.153814      0.736053
  C       2.704686     -1.220448      2.206081
  C       3.203947      0.139848      2.702739
  C       2.176672      1.234898      2.408349
  C       1.806268      1.231517      0.929084
  H       1.018699      1.958092      0.724456
  H       2.689369      1.531456      0.341887
  H       2.565737      2.218303      2.692424
  H       1.271240      1.056551      3.000163
  H       3.475593     -1.983629      2.335835
  H       1.838406     -1.528037      2.800861
  H       3.200025     -1.014253      0.120399
  H      -0.796042     -1.423573     -1.645803
  H       0.993361     -0.062554     -0.416983
  H       1.846251     -2.100343      0.429396
  H       3.422577      0.097975      3.774051
  H       4.144135      0.386605      2.193740
  H      -4.538435      2.262675      0.016421
  H       2.093678     -1.496325     -2.974788
  H       1.860162      0.009547     -2.955827
  O       1.394226     -0.834417     -2.998721
40
Coordinates from ORCA-job /home/rudenko/2025/kie/for_orca/c6h5chno2ch3_piperidine/orca/ts_opt/ts_opt E -843.639039491390
  C      -1.570601      2.465762     -1.615878
  C      -1.230883      1.116297     -1.621050
  C      -2.070264      0.174844     -1.031122
  C      -3.250738      0.600425     -0.420706
  C      -3.594282      1.946528     -0.423026
  C      -2.757602      2.882816     -1.025257
  H      -0.910788      3.187361     -2.079764
  H      -0.311802      0.793800     -2.093413
  H      -3.909798     -0.119052      0.047391
  H      -3.031089      3.930786     -1.033672
  C      -1.702059     -1.291784     -1.073118
  C      -1.665931     -1.984473      0.275422
  H      -1.585873     -3.066649      0.160831
  H      -2.550218     -1.761362      0.868786
  H      -0.787072     -1.620353      0.805941
  N      -2.719923     -1.968301     -2.005281
  O      -2.508849     -1.887415     -3.204502
  O      -3.680915     -2.537155     -1.514506
  N       1.312333     -0.072114      0.532092
  C       2.289383     -1.140137      0.712073
  C       2.689550     -1.236966      2.184091
  C       3.185984      0.111864      2.708032
  C       2.164116      1.216467      2.426197
  C       1.804257      1.242070      0.942888
  H       1.020794      1.978332      0.745376
  H       2.696661      1.548976      0.364926
  H       2.553651      2.188446      2.729794
  H       1.256702      1.031540      3.007517
  H       3.459554     -2.003432      2.302770
  H       1.818927     -1.555967      2.766320
  H       3.197314     -0.985322      0.099162
  H      -0.769893     -1.416276     -1.620290
  H       0.994829     -0.047851     -0.426315
  H       1.837236     -2.081415      0.386102
  H       3.399549      0.048720      3.776527
  H       4.125786      0.363298      2.209307
  H      -4.516807      2.264962      0.044513
  H       2.090740     -1.493052     -2.979437
  H       1.846884      0.010996     -2.943613
  O       1.381134     -0.835215     -2.985105
40
Coordinates from ORCA-job /home/rudenko/2025/kie/for_orca/c6h5chno2ch3_piperidine/orca/ts_opt/ts_opt E -843.639135423052
  C      -1.564603      2.465047     -1.590580
  C      -1.233824      1.113616     -1.610027
  C      -2.085488      0.170247     -1.040423
  C      -3.273664      0.595327     -0.443953
  C      -3.608875      1.943419     -0.433543
  C      -2.755821      2.882314     -1.008339
  H      -0.892105      3.188005     -2.034072
  H      -0.310151      0.794966     -2.076860
  H      -3.944890     -0.126179      0.003830
  H      -3.019856      3.932389     -1.002140
  C      -1.717739     -1.297210     -1.084043
  C      -1.678104     -1.989935      0.264469
  H      -1.589974     -3.069806      0.149185
  H      -2.563935     -1.772290      0.857421
  H      -0.801459     -1.619942      0.795312
  N      -2.733009     -1.977838     -2.014788
  O      -2.527802     -1.887641     -3.214774
  O      -3.693269     -2.548141     -1.523919
  N       1.320338     -0.071472      0.539129
  C       2.294925     -1.140971      0.723102
  C       2.697597     -1.230189      2.193835
  C       3.200893      0.120936      2.709835
  C       2.182842      1.226777      2.421813
  C       1.817567      1.242344      0.940146
  H       1.037260      1.978335      0.740004
  H       2.705682      1.540311      0.358276
  H       2.577954      2.202964      2.718619
  H       1.274434      1.048743      3.007814
  H       3.463636     -1.998862      2.316917
  H       1.826601     -1.541738      2.779531
  H       3.200665     -0.992493      0.110305
  H      -0.783557     -1.417905     -1.627757
  H       0.999814     -0.045143     -0.418248
  H       1.842544     -2.081678      0.402146
  H       3.412934      0.064375      3.781890
  H       4.145178      0.367727      2.209474
  H      -4.537294      2.261525      0.023273
  H       2.085703     -1.496326     -2.984063
  H       1.847657      0.005238     -2.946887
  O       1.381197     -0.838846     -2.991908
40
Coordinates from ORCA-job /home/rudenko/2025/kie/for_orca/c6h5chno2ch3_piperidine/orca/ts_opt/ts_opt E -843.639161931798
  C      -1.543598      2.464668     -1.555224
  C      -1.228849      1.110744     -1.599065
  C      -2.094780      0.165691     -1.054244
  C      -3.286409      0.592237     -0.466617
  C      -3.606236      1.943693     -0.432294
  C      -2.734521      2.884359     -0.974768
  H      -0.855384      3.187288     -1.975249
  H      -0.303382      0.799725     -2.062841
  H      -3.971288     -0.130608     -0.041777
  H      -2.983034      3.937477     -0.944279
  C      -1.734236     -1.303605     -1.102584
  C      -1.679601     -1.990522      0.247954
  H      -1.562113     -3.067759      0.135987
  H      -2.571518     -1.791826      0.837577
  H      -0.813024     -1.593349      0.775390
  N      -2.762736     -1.983223     -2.017880
  O      -2.582000     -1.884978     -3.221383
  O      -3.711224     -2.559100     -1.513837
  N       1.317608     -0.091094      0.542429
  C       2.299183     -1.153700      0.739545
  C       2.707168     -1.218857      2.210217
  C       3.204159      0.141920      2.703772
  C       2.175299      1.236505      2.410407
  C       1.805020      1.231630      0.931410
  H       1.015749      1.958785      0.725722
  H       2.692054      1.533312      0.344258
  H       2.564444      2.216458      2.689030
  H       1.273396      1.061421      3.003572
  H       3.480448     -1.981276      2.340589
  H       1.841055     -1.526832      2.805342
  H       3.205307     -1.008226      0.123392
  H      -0.803052     -1.427710     -1.652238
  H       0.994696     -0.067124     -0.415519
  H       1.852303     -2.102063      0.429880
  H       3.426790      0.101311      3.770984
  H       4.139444      0.386913      2.192621
  H      -4.536685      2.262918      0.019098
  H       2.102359     -1.503541     -2.979796
  H       1.866638      0.006767     -2.962789
  O       1.400548     -0.838431     -3.006791
40
Coordinates from ORCA-job /home/rudenko/2025/kie/for_orca/c6h5chno2ch3_piperidine/orca/ts_opt/ts_opt E -843.639206066209
  C      -1.542222      2.470172     -1.557216
  C      -1.225301      1.115577     -1.603189
  C      -2.089996      0.170213     -1.057900
  C      -3.278627      0.596357     -0.462646
  C      -3.600076      1.947566     -0.426055
  C      -2.732281      2.889392     -0.973483
  H      -0.856939      3.193674     -1.979806
  H      -0.298559      0.805557     -2.069952
  H      -3.959348     -0.127611     -0.032910
  H      -2.982920      3.942845     -0.943295
  C      -1.732034     -1.298705     -1.103555
  C      -1.663958     -1.975414      0.251276
  H      -1.516144     -3.050743      0.146804
  H      -2.561560     -1.795836      0.839112
  H      -0.808314     -1.546991      0.772089
  N      -2.766490     -1.983762     -2.007547
  O      -2.602807     -1.874859     -3.212410
  O      -3.701625     -2.575000     -1.492973
  N       1.308954     -0.104060      0.538178
  C       2.293342     -1.162142      0.734786
  C       2.705188     -1.223352      2.203919
  C       3.196147      0.141352      2.696427
  C       2.159447      1.228678      2.404327
  C       1.785966      1.221276      0.924927
  H       0.992014      1.941628      0.720038
  H       2.667454      1.528591      0.337169
  H       2.542486      2.214210      2.684875
  H       1.258566      1.044954      2.999972
  H       3.479832     -1.982461      2.334380
  H       1.841210     -1.534545      2.800786
  H       3.194379     -1.016730      0.114664
  H      -0.806846     -1.432822     -1.659307
  H       0.985266     -0.087308     -0.418406
  H       1.849532     -2.113560      0.432303
  H       3.419852      0.101734      3.766726
  H       4.131801      0.395079      2.182359
  H      -4.528306      2.265653      0.031227
  H       2.123014     -1.500016     -2.948708
  H       1.894409      0.007488     -2.966683
  O       1.425498     -0.836081     -3.000300
40
Coordinates from ORCA-job /home/rudenko/2025/kie/for_orca/c6h5chno2ch3_piperidine/orca/ts_opt/ts_opt E -843.639235590191
  C      -1.547394      2.467513     -1.560984
  C      -1.228879      1.113394     -1.602323
  C      -2.093379      0.168595     -1.055502
  C      -3.283680      0.594524     -0.463791
  C      -3.606803      1.945333     -0.432053
  C      -2.739157      2.886409     -0.980824
  H      -0.862780      3.191068     -1.984571
  H      -0.301477      0.800327     -2.064801
  H      -3.964399     -0.128964     -0.033538
  H      -2.991584      3.939223     -0.954824
  C      -1.733333     -1.299950     -1.100817
  C      -1.673208     -1.980675      0.252732
  H      -1.538213     -3.056806      0.145333
  H      -2.569418     -1.792954      0.840248
  H      -0.813282     -1.566212      0.778409
  N      -2.762161     -1.983448     -2.012659
  O      -2.586572     -1.879847     -3.216361
  O      -3.703322     -2.570802     -1.505048
  N       1.314507     -0.092754      0.541309
  C       2.296259     -1.154229      0.733970
  C       2.705438     -1.223473      2.203719
  C       3.202132      0.136570      2.701452
  C       2.172402      1.230820      2.410570
  C       1.799478      1.229298      0.930997
  H       1.010394      1.955378      0.727728
  H       2.683124      1.532246      0.343807
  H       2.561380      2.212798      2.693748
  H       1.270137      1.051601      3.004875
  H       3.476696     -1.986311      2.332492
  H       1.839075     -1.532985      2.797604
  H       3.198678     -1.006560      0.115648
  H      -0.804902     -1.429677     -1.652330
  H       0.991746     -0.073759     -0.415689
  H       1.850058     -2.102521      0.425279
  H       3.423865      0.092574      3.771362
  H       4.139162      0.385603      2.190429
  H      -4.536294      2.263808      0.022388
  H       2.112787     -1.501331     -2.963484
  H       1.880508      0.004891     -2.962835
  O       1.412411     -0.838714     -3.001664
40
Coordinates from ORCA-job /home/rudenko/2025/kie/for_orca/c6h5chno2ch3_piperidine/orca/ts_opt/ts_opt E -843.639244968885
  C      -1.548917      2.465761     -1.555841
  C      -1.231768      1.111380     -1.598460
  C      -2.100125      0.166722     -1.057762
  C      -3.292939      0.592458     -0.471176
  C      -3.614880      1.943515     -0.438647
  C      -2.743428      2.884607     -0.981316
  H      -0.861570      3.189723     -1.974204
  H      -0.301622      0.796711     -2.054385
  H      -3.976078     -0.131294     -0.045254
  H      -2.995063      3.937567     -0.954699
  C      -1.739893     -1.301607     -1.103007
  C      -1.682061     -1.981869      0.250774
  H      -1.544468     -3.058034      0.143949
  H      -2.580356     -1.795735      0.835812
  H      -0.824445     -1.565680      0.778781
  N      -2.766597     -1.985190     -2.016838
  O      -2.588042     -1.882656     -3.220290
  O      -3.708664     -2.572346     -1.510796
  N       1.320052     -0.087286      0.545304
  C       2.301281     -1.149926      0.736198
  C       2.709047     -1.222454      2.206116
  C       3.209199      0.135733      2.705132
  C       2.183209      1.233716      2.414326
  C       1.809292      1.233616      0.934895
  H       1.022429      1.962679      0.732362
  H       2.693954      1.533811      0.346946
  H       2.576342      2.213777      2.696793
  H       1.280879      1.058544      3.009267
  H       3.478194     -1.987588      2.334841
  H       1.841175     -1.530018      2.798660
  H       3.204176     -0.999730      0.118765
  H      -0.810153     -1.430225     -1.652530
  H       0.997722     -0.068412     -0.411926
  H       1.854852     -2.097046      0.423968
  H       3.430290      0.090574      3.774874
  H       4.147148      0.381801      2.194939
  H      -4.546153      2.262245      0.011909
  H       2.110871     -1.505502     -2.974654
  H       1.877693      0.000578     -2.965112
  O       1.409418     -0.842919     -3.007714
40
Coordinates from ORCA-job /home/rudenko/2025/kie/for_orca/c6h5chno2ch3_piperidine/orca/ts_opt/ts_opt E -843.639228693588
  C      -1.548618      2.466631     -1.551418
  C      -1.232084      1.111904     -1.596082
  C      -2.103307      0.167126     -1.060660
  C      -3.297311      0.592576     -0.476209
  C      -3.618440      1.943687     -0.441632
  C      -2.744798      2.885213     -0.980117
  H      -0.859667      3.191122     -1.965998
  H      -0.299959      0.797262     -2.048627
  H      -3.981435     -0.131774     -0.052987
  H      -2.995984      3.938269     -0.952307
  C      -1.744538     -1.301048     -1.105146
  C      -1.681492     -1.977093      0.250630
  H      -1.529974     -3.051555      0.146661
  H      -2.582909     -1.800289      0.833991
  H      -0.829306     -1.547434      0.777364
  N      -2.773864     -1.985806     -2.014895
  O      -2.599777     -1.883062     -3.218952
  O      -3.711187     -2.578049     -1.505231
  N       1.321791     -0.089418      0.546074
  C       2.304390     -1.150432      0.736992
  C       2.710837     -1.222674      2.207389
  C       3.210439      0.135489      2.705811
  C       2.183972      1.232920      2.415012
  C       1.808916      1.232359      0.935555
  H       1.021276      1.960328      0.733445
  H       2.692645      1.533918      0.347213
  H       2.577134      2.213245      2.696993
  H       1.282308      1.057595      3.010859
  H       3.479495     -1.987741      2.337186
  H       1.842319     -1.529892      2.799117
  H       3.207130     -0.998277      0.119699
  H      -0.816773     -1.432983     -1.656875
  H       0.999360     -0.072769     -0.411011
  H       1.859871     -2.098533      0.424517
  H       3.432424      0.090587      3.775301
  H       4.147276      0.381398      2.194905
  H      -4.550526      2.262138      0.007437
  H       2.117698     -1.508094     -2.976560
  H       1.885882     -0.001918     -2.972878
  O       1.416788     -0.844929     -3.014566
40
Coordinates from ORCA-job /home/rudenko/2025/kie/for_orca/c6h5chno2ch3_piperidine/orca/ts_opt/ts_opt E -843.639223829771
  C      -1.556778      2.467075     -1.576744
  C      -1.231885      1.114096     -1.608494
  C      -2.090024      0.170061     -1.050552
  C      -3.278515      0.595311     -0.454796
  C      -3.607677      1.944707     -0.432311
  C      -2.748036      2.884943     -0.994844
  H      -0.878838      3.190795     -2.010350
  H      -0.305450      0.798595     -2.072002
  H      -3.953245     -0.127633     -0.014699
  H      -3.006368      3.936406     -0.978097
  C      -1.727283     -1.297512     -1.093403
  C      -1.673204     -1.979620      0.259986
  H      -1.549881     -3.057328      0.151949
  H      -2.567181     -1.783776      0.848984
  H      -0.808871     -1.574876      0.786438
  N      -2.751808     -1.980665     -2.010870
  O      -2.563958     -1.886536     -3.213594
  O      -3.698389     -2.563954     -1.507646
  N       1.316682     -0.083765      0.539729
  C       2.296450     -1.147717      0.727154
  C       2.700966     -1.228087      2.197952
  C       3.199776      0.126920      2.705662
  C       2.175285      1.226746      2.417563
  C       1.805806      1.235007      0.936646
  H       1.020560      1.965736      0.735511
  H       2.692058      1.537353      0.352664
  H       2.567328      2.205139      2.707904
  H       1.270928      1.047557      3.008206
  H       3.469632     -1.993640      2.324116
  H       1.831761     -1.539316      2.786531
  H       3.200312     -0.996366      0.111277
  H      -0.797421     -1.426147     -1.642602
  H       0.995434     -0.063431     -0.417636
  H       1.848761     -2.092959      0.410929
  H       3.417961      0.075592      3.775682
  H       4.138459      0.375054      2.199540
  H      -4.535749      2.262754      0.025208
  H       2.106947     -1.500582     -2.971335
  H       1.871699      0.003925     -2.959782
  O       1.403754     -0.839862     -2.999874
40
Coordinates from ORCA-job /home/rudenko/2025/kie/for_orca/c6h5chno2ch3_piperidine/orca/ts_opt/ts_opt E -843.638921048636
  C      -1.565662      2.474077     -1.589276
  C      -1.229686      1.122095     -1.610845
  C      -2.084222      0.177837     -1.050017
  C      -3.270686      0.600742     -0.448275
  C      -3.608889      1.947619     -0.433624
  C      -2.760090      2.888891     -1.011034
  H      -0.896013      3.199545     -2.031294
  H      -0.300793      0.807846     -2.075046
  H      -3.935471     -0.123741      0.003778
  H      -3.028807      3.938475     -1.006712
  C      -1.724409     -1.288072     -1.086236
  C      -1.655807     -1.954323      0.274997
  H      -1.500741     -3.031533      0.178424
  H      -2.556357     -1.777790      0.863560
  H      -0.803326     -1.511980      0.792102
  N      -2.759150     -1.975097     -1.990052
  O      -2.580664     -1.889109     -3.195129
  O      -3.691980     -2.573097     -1.472421
  N       1.319579     -0.092015      0.531116
  C       2.302581     -1.150737      0.715776
  C       2.696870     -1.238692      2.189520
  C       3.187541      0.114410      2.707649
  C       2.158864      1.211281      2.424251
  C       1.793432      1.229034      0.940347
  H       1.002652      1.953926      0.742400
  H       2.678369      1.546152      0.361809
  H       2.544944      2.189415      2.724597
  H       1.254626      1.021674      3.011425
  H       3.464521     -2.003029      2.317294
  H       1.824118     -1.555230      2.769146
  H       3.208034     -0.992652      0.103311
  H      -0.804581     -1.432577     -1.646625
  H       0.999737     -0.078476     -0.425428
  H       1.861581     -2.098797      0.395152
  H       3.404383      0.055694      3.778388
  H       4.124404      0.370478      2.203826
  H      -4.535551      2.262691      0.028421
  H       2.133942     -1.503578     -2.977201
  H       1.901763      0.000865     -2.988199
  O       1.430943     -0.842222     -3.019876
40
Coordinates from ORCA-job /home/rudenko/2025/kie/for_orca/c6h5chno2ch3_piperidine/orca/ts_opt/ts_opt E -843.639204440760
  C      -1.562989      2.467853     -1.585672
  C      -1.233812      1.115532     -1.611805
  C      -2.088763      0.171837     -1.048658
  C      -3.276155      0.596506     -0.450205
  C      -3.609255      1.944974     -0.432980
  C      -2.754722      2.884885     -1.003854
  H      -0.889101      3.191909     -2.024694
  H      -0.307076      0.798613     -2.074764
  H      -3.946766     -0.126359     -0.003798
  H      -3.017272      3.935565     -0.993155
  C      -1.724895     -1.295144     -1.089398
  C      -1.671915     -1.975446      0.264939
  H      -1.547348     -3.054011      0.158492
  H      -2.566912     -1.779904      0.853340
  H      -0.808511     -1.567938      0.791131
  N      -2.748278     -1.979574     -2.007680
  O      -2.556612     -1.890231     -3.210243
  O      -3.695784     -2.562091     -1.504413
  N       1.318587     -0.080329      0.538447
  C       2.298230     -1.144710      0.722548
  C       2.699110     -1.232045      2.193952
  C       3.197858      0.120459      2.708552
  C       2.175511      1.222811      2.422035
  C       1.808174      1.237005      0.940119
  H       1.024153      1.969597      0.740518
  H       2.695680      1.540608      0.358239
  H       2.568583      2.199425      2.717080
  H       1.269935      1.042677      3.010424
  H       3.466222     -1.998919      2.319227
  H       1.827841     -1.544726      2.778365
  H       3.202824     -0.989464      0.108608
  H      -0.795384     -1.425594     -1.638405
  H       0.998556     -0.060533     -0.419059
  H       1.850975     -2.088637      0.401047
  H       3.413080      0.064488      3.779378
  H       4.138556      0.369968      2.205713
  H      -4.536433      2.262547      0.026649
  H       2.108327     -1.501622     -2.976140
  H       1.872139      0.001906     -2.961988
  O       1.403641     -0.841886     -3.001891
40
Coordinates from ORCA-job /home/rudenko/2025/kie/for_orca/c6h5chno2ch3_piperidine/orca/ts_opt/ts_opt E -843.639258686643
  C      -1.567488      2.462616     -1.592035
  C      -1.239730      1.110728     -1.616594
  C      -2.091374      0.168034     -1.045826
  C      -3.278634      0.593202     -0.447768
  C      -3.611392      1.941859     -0.433224
  C      -2.757109      2.880412     -1.006489
  H      -0.894109      3.185766     -2.033787
  H      -0.314528      0.789906     -2.078509
  H      -3.950157     -0.128299     -0.000530
  H      -3.018286      3.931081     -0.995316
  C      -1.722287     -1.298424     -1.087972
  C      -1.683255     -1.989000      0.261618
  H      -1.585512     -3.068767      0.148025
  H      -2.572464     -1.776602      0.851945
  H      -0.810536     -1.609787      0.792617
  N      -2.733499     -1.981366     -2.020295
  O      -2.522557     -1.897531     -3.219988
  O      -3.694893     -2.550983     -1.530755
  N       1.318892     -0.064854      0.543540
  C       2.294620     -1.135204      0.723441
  C       2.697005     -1.230002      2.193668
  C       3.204522      0.117952      2.712203
  C       2.192160      1.229252      2.424713
  C       1.824782      1.247004      0.943442
  H       1.049773      1.989262      0.744255
  H       2.715404      1.538485      0.360583
  H       2.594055      2.202138      2.720017
  H       1.284285      1.057760      3.012180
  H       3.460945     -2.001261      2.315270
  H       1.824681     -1.540228      2.778105
  H       3.199196     -0.979345      0.110298
  H      -0.784964     -1.417651     -1.626642
  H       0.999592     -0.039655     -0.414852
  H       1.841943     -2.073635      0.396171
  H       3.415693      0.058972      3.783328
  H       4.149196      0.360336      2.213794
  H      -4.538175      2.260776      0.026359
  H       2.083575     -1.500718     -2.978537
  H       1.843878      0.001005     -2.939855
  O       1.376752     -0.843233     -2.986598
