17
Coordinates from ORCA-job /home/rudenko/2025/kie/for_orca/ch3no2_ch2clcoo/orca/ts_opt/ts_opt
  C   -2.16119606127587     -0.81112238826348     -0.07925973720684
  H   -3.08791387630283     -0.52338575788694     -0.56192875996764
  H   -1.12311823043938     -0.56140203290571     -0.98874188892968
  H   -2.08049774221798     -1.84985170667945      0.21889245858571
  N   -1.85898300379315      0.04725838412705      0.98912060878206
  O   -1.08701508735792     -0.34308070175735      1.88956830827980
  O   -2.28475378639710      1.21891572163463      0.97703987986835
  C   1.82954634071730      1.23887750555682      0.29820864156426
  O   2.41313622860444      2.09970226590665      0.93998871898521
  O   1.07409892175720      1.51069223233766     -0.72640218657107
  C   1.97951713239025     -0.22933252041915      0.68305674893839
  Cl  3.15327264870302     -1.02519478291839     -0.44807676700520
  H   1.04496274550755     -0.77489795182794      0.60889118135572
  H   2.40028690175726     -0.31158906718224      1.67850888657369
  H   -0.56142367908893     -0.01073716313973     -2.56315715559711
  O   -0.18041033357392     -0.32952978324857     -1.73442627042235
  H   0.53049088101007      0.65467774666614     -1.18128266723331
