! NEB-TS b3lyp D3 def2-TZVP CPCM

%pal
nprocs 18
end

%cpcm
epsilon 78.0
end

%neb
NEB_End_XYZFile "end.xyz"
Nimages 6
end


*XYZfile 0 1 start.xyz
