17
Coordinates from ORCA-job /home/rudenko/2025/kie/for_orca/ch3no2_ch3coo/orca/ts_opt/ts_opt E -550.064163661808
  C       0.269306     -1.769703      2.023266
  H       1.170201     -1.184574      1.176217
  H       0.458189     -1.376752      3.016082
  H       0.373144     -2.843710      1.917389
  N      -0.983432     -1.339314      1.545057
  O      -1.455766     -0.259195      1.949280
  O      -1.555571     -1.995586      0.653990
  C      -0.061362      1.061760     -1.531446
  O       0.720127      1.316756     -0.505957
  O      -0.120680     -0.026767     -2.089047
  C      -0.897563      2.243704     -1.954864
  H      -1.439516      2.019416     -2.870345
  H      -0.264743      3.120347     -2.099504
  H      -1.608981      2.480933     -1.160703
  H       1.258694      0.445991     -0.175810
  O       1.983674     -0.622272      0.400772
  H       2.154280     -1.271032     -0.294375
17
Coordinates from ORCA-job /home/rudenko/2025/kie/for_orca/ch3no2_ch3coo/orca/ts_opt/ts_opt E -550.064144949951
  C       0.273856     -1.731336      2.049631
  H       1.168299     -1.183676      1.171514
  H       0.420838     -1.242675      3.006365
  H       0.427413     -2.804578      2.043582
  N      -0.984579     -1.403917      1.508870
  O      -1.514076     -0.314992      1.804004
  O      -1.504908     -2.162929      0.669067
  C      -0.071167      1.073742     -1.521693
  O       0.747360      1.314247     -0.521883
  O      -0.179440     -0.017507     -2.066568
  C      -0.883422      2.276639     -1.932430
  H      -1.458499      2.060580     -2.829492
  H      -0.228971      3.132271     -2.104137
  H      -1.563771      2.542632     -1.120346
  H       1.268248      0.430392     -0.198395
  O       1.976284     -0.654431      0.367573
  H       2.106533     -1.314463     -0.325662
17
Coordinates from ORCA-job /home/rudenko/2025/kie/for_orca/ch3no2_ch3coo/orca/ts_opt/ts_opt E -550.064041778561
  C       0.274241     -1.696110      2.062324
  H       1.167354     -1.186158      1.163279
  H       0.380555     -1.129139      2.980572
  H       0.465368     -2.760020      2.144407
  N      -0.979285     -1.454913      1.467682
  O      -1.550301     -0.366129      1.672338
  O      -1.440145     -2.277072      0.652854
  C      -0.086017      1.080180     -1.487405
  O       0.773894      1.318715     -0.522277
  O      -0.244023     -0.020120     -2.000426
  C      -0.871712      2.296294     -1.910379
  H      -1.478095      2.072226     -2.784804
  H      -0.196252      3.125174     -2.125719
  H      -1.520732      2.606895     -1.088746
  H       1.279371      0.423614     -0.203194
  O       1.971137     -0.685278      0.338484
  H       2.054642     -1.348157     -0.358991
17
Coordinates from ORCA-job /home/rudenko/2025/kie/for_orca/ch3no2_ch3coo/orca/ts_opt/ts_opt E -550.064098922478
  C       0.275010     -1.718413      2.054648
  H       1.168090     -1.183883      1.167355
  H       0.406420     -1.199452      2.997585
  H       0.444895     -2.788864      2.082069
  N      -0.983207     -1.425084      1.494078
  O      -1.539620     -0.344483      1.769968
  O      -1.486615     -2.214257      0.671816
  C      -0.073777      1.078369     -1.512904
  O       0.758094      1.317671     -0.523677
  O      -0.201511     -0.016548     -2.046092
  C      -0.876882      2.286259     -1.926743
  H      -1.463511      2.067348     -2.815614
  H      -0.214750      3.132634     -2.114114
  H      -1.545914      2.568058     -1.110611
  H       1.273081      0.429813     -0.201325
  O       1.974469     -0.664487      0.354918
  H       2.085729     -1.324681     -0.341357
17
Coordinates from ORCA-job /home/rudenko/2025/kie/for_orca/ch3no2_ch3coo/orca/ts_opt/ts_opt E -550.064099521987
  C       0.276374     -1.709670      2.062720
  H       1.165856     -1.184353      1.165933
  H       0.396262     -1.166309      2.993293
  H       0.461531     -2.776547      2.116744
  N      -0.983513     -1.447985      1.490504
  O      -1.554712     -0.367928      1.736620
  O      -1.466313     -2.257535      0.675767
  C      -0.077984      1.083033     -1.508903
  O       0.763389      1.318700     -0.526773
  O      -0.220482     -0.012965     -2.036101
  C      -0.871293      2.296965     -1.923935
  H      -1.465866      2.079061     -2.807749
  H      -0.201693      3.135371     -2.120473
  H      -1.532095      2.590252     -1.105163
  H       1.273574      0.427503     -0.205701
  O       1.969633     -0.672994      0.345091
  H       2.067331     -1.334598     -0.351873
17
Coordinates from ORCA-job /home/rudenko/2025/kie/for_orca/ch3no2_ch3coo/orca/ts_opt/ts_opt E -550.064095759535
  C       0.277638     -1.705217      2.065137
  H       1.164834     -1.182876      1.165940
  H       0.388797     -1.150331      2.989994
  H       0.473042     -2.769556      2.131715
  N      -0.982862     -1.462542      1.485834
  O      -1.567462     -0.387250      1.720618
  O      -1.453158     -2.284558      0.676232
  C      -0.085853      1.084331     -1.502679
  O       0.766995      1.319685     -0.530473
  O      -0.243677     -0.014153     -2.020245
  C      -0.866576      2.304275     -1.924064
  H      -1.470463      2.085233     -2.801269
  H      -0.187663      3.131888     -2.134068
  H      -1.517303      2.614436     -1.103490
  H       1.274320      0.427232     -0.208135
  O       1.967834     -0.674183      0.342944
  H       2.061556     -1.336414     -0.353991
17
Coordinates from ORCA-job /home/rudenko/2025/kie/for_orca/ch3no2_ch3coo/orca/ts_opt/ts_opt E -550.064100148265
  C       0.275093     -1.704389      2.063062
  H       1.165092     -1.181048      1.167403
  H       0.382515     -1.150416      2.988881
  H       0.471269     -2.768607      2.129034
  N      -0.983902     -1.462659      1.480098
  O      -1.566974     -0.385224      1.708381
  O      -1.446273     -2.280640      0.661890
  C      -0.088229      1.081751     -1.498577
  O       0.773022      1.319813     -0.534524
  O      -0.259871     -0.020830     -2.002878
  C      -0.867108      2.302475     -1.921330
  H      -1.483304      2.079166     -2.788842
  H      -0.185845      3.123858     -2.147464
  H      -1.505518      2.624301     -1.095564
  H       1.278819      0.427661     -0.208603
  O       1.971397     -0.671308      0.347493
  H       2.069818     -1.333906     -0.348460
17
Coordinates from ORCA-job /home/rudenko/2025/kie/for_orca/ch3no2_ch3coo/orca/ts_opt/ts_opt E -550.064075740655
  C       0.279875     -1.720325      2.062377
  H       1.166946     -1.190383      1.166188
  H       0.419403     -1.197694      3.002004
  H       0.447651     -2.790924      2.092741
  N      -0.981234     -1.425580      1.509718
  O      -1.525246     -0.336017      1.775128
  O      -1.483611     -2.207413      0.680007
  C      -0.073931      1.080501     -1.515776
  O       0.740400      1.313516     -0.510476
  O      -0.172654     -0.004330     -2.075091
  C      -0.877432      2.287785     -1.930181
  H      -1.436862      2.078928     -2.838802
  H      -0.219410      3.144115     -2.084011
  H      -1.571807      2.547851     -1.128184
  H       1.260358      0.425690     -0.196704
  O       1.965345     -0.673673      0.345596
  H       2.062207     -1.332048     -0.354532
17
Coordinates from ORCA-job /home/rudenko/2025/kie/for_orca/ch3no2_ch3coo/orca/ts_opt/ts_opt E -550.063749913458
  C       0.275706     -1.737053      2.046312
  H       1.174125     -1.211287      1.153824
  H       0.474084     -1.278304      3.008400
  H       0.367207     -2.816652      2.013074
  N      -0.968805     -1.317813      1.540449
  O      -1.424408     -0.208275      1.881916
  O      -1.550923     -2.015457      0.688274
  C      -0.001996      1.083896     -1.550757
  O       0.692983      1.297421     -0.455394
  O       0.025623      0.031161     -2.175802
  C      -0.905783      2.230744     -1.926557
  H      -1.358409      2.053952     -2.899237
  H      -0.343768      3.165123     -1.938195
  H      -1.692262      2.329708     -1.174524
  H       1.238477      0.418929     -0.164830
  O       1.962172     -0.691302      0.334813
  H       2.035977     -1.334789     -0.381765
17
Coordinates from ORCA-job /home/rudenko/2025/kie/for_orca/ch3no2_ch3coo/orca/ts_opt/ts_opt E -550.064052115427
  C       0.277614     -1.711909      2.061988
  H       1.166625     -1.190540      1.163587
  H       0.411201     -1.178196      2.996278
  H       0.448127     -2.781679      2.105236
  N      -0.981345     -1.426166      1.499631
  O      -1.534854     -0.339959      1.759108
  O      -1.480711     -2.220705      0.680152
  C      -0.058713      1.084223     -1.522681
  O       0.748818      1.313447     -0.511131
  O      -0.170184     -0.004738     -2.071502
  C      -0.876738      2.286626     -1.922804
  H      -1.445366      2.076346     -2.825361
  H      -0.226547      3.147789     -2.081775
  H      -1.563675      2.539747     -1.112019
  H       1.266218      0.423904     -0.198061
  O       1.966179     -0.679993      0.340474
  H       2.053352     -1.338195     -0.361119
17
Coordinates from ORCA-job /home/rudenko/2025/kie/for_orca/ch3no2_ch3coo/orca/ts_opt/ts_opt E -550.064030076463
  C       0.284616     -1.718993      2.068846
  H       1.167488     -1.195771      1.162620
  H       0.429234     -1.190956      3.004619
  H       0.451462     -2.789576      2.104027
  N      -0.978169     -1.425117      1.520070
  O      -1.521812     -0.335554      1.786165
  O      -1.480093     -2.205242      0.688366
  C      -0.068970      1.083510     -1.519361
  O       0.724733      1.310284     -0.496315
  O      -0.147531      0.004880     -2.093890
  C      -0.875638      2.288896     -1.933105
  H      -1.408462      2.090018     -2.859801
  H      -0.224167      3.155447     -2.054087
  H      -1.594096      2.526289     -1.145433
  H       1.250593      0.422815     -0.191492
  O       1.958416     -0.683285      0.332741
  H       2.032397     -1.337645     -0.373970
17
Coordinates from ORCA-job /home/rudenko/2025/kie/for_orca/ch3no2_ch3coo/orca/ts_opt/ts_opt E -550.063964169535
  C       0.289984     -1.743264      2.060053
  H       1.176453     -1.207646      1.152066
  H       0.489258     -1.283231      3.021357
  H       0.399211     -2.821311      2.023420
  N      -0.966499     -1.346762      1.565707
  O      -1.456861     -0.261488      1.935540
  O      -1.528426     -2.040138      0.695790
  C      -0.034398      1.080331     -1.539105
  O       0.672878      1.301870     -0.453020
  O      -0.014428      0.023339     -2.158030
  C      -0.889354      2.252332     -1.950888
  H      -1.303624      2.090339     -2.943000
  H      -0.303788      3.172093     -1.933347
  H      -1.705606      2.369096     -1.233853
  H       1.223764      0.426181     -0.163290
  O       1.952066     -0.687752      0.322966
  H       1.999372     -1.323988     -0.402365
17
Coordinates from ORCA-job /home/rudenko/2025/kie/for_orca/ch3no2_ch3coo/orca/ts_opt/ts_opt E -550.064023165564
  C       0.286956     -1.715404      2.070715
  H       1.169869     -1.198003      1.157578
  H       0.437800     -1.188556      3.006129
  H       0.448474     -2.786907      2.104202
  N      -0.975303     -1.414183      1.525364
  O      -1.520970     -0.329213      1.806241
  O      -1.481955     -2.189123      0.691342
  C      -0.053970      1.085817     -1.527944
  O       0.718232      1.307652     -0.487356
  O      -0.123410      0.008424     -2.106139
  C      -0.875528      2.284041     -1.933090
  H      -1.381265      2.096514     -2.877163
  H      -0.239920      3.166384     -2.016545
  H      -1.618804      2.487270     -1.158689
  H       1.247795      0.420980     -0.187659
  O       1.955292     -0.692684      0.322742
  H       2.006708     -1.343011     -0.389728
17
Coordinates from ORCA-job /home/rudenko/2025/kie/for_orca/ch3no2_ch3coo/orca/ts_opt/ts_opt E -550.063934761220
  C       0.294292     -1.717865      2.077141
  H       1.174353     -1.204987      1.150281
  H       0.465316     -1.202812      3.015473
  H       0.440801     -2.791853      2.096370
  N      -0.968598     -1.391890      1.549741
  O      -1.500677     -0.306966      1.856645
  O      -1.488384     -2.142319      0.701083
  C      -0.038960      1.087818     -1.539678
  O       0.690883      1.299126     -0.466515
  O      -0.066721      0.022679     -2.143728
  C      -0.877182      2.275878     -1.940199
  H      -1.313214      2.118973     -2.923828
  H      -0.273006      3.183629     -1.936581
  H      -1.677628      2.411250     -1.208888
  H       1.231174      0.416004     -0.178082
  O       1.945513     -0.707156      0.306087
  H       1.962039     -1.349509     -0.415320
17
Coordinates from ORCA-job /home/rudenko/2025/kie/for_orca/ch3no2_ch3coo/orca/ts_opt/ts_opt E -550.064004456692
  C       0.287483     -1.706309      2.076884
  H       1.163171     -1.196738      1.159905
  H       0.418424     -1.149001      2.997529
  H       0.473084     -2.772315      2.143645
  N      -0.978125     -1.450736      1.514963
  O      -1.547366     -0.368760      1.756577
  O      -1.462121     -2.262292      0.702919
  C      -0.061278      1.092909     -1.523303
  O       0.727683      1.311534     -0.494958
  O      -0.156768      0.011314     -2.089659
  C      -0.867065      2.301186     -1.930520
  H      -1.413959      2.101326     -2.848755
  H      -0.211312      3.162349     -2.065095
  H      -1.572954      2.547980     -1.134250
  H       1.249696      0.419959     -0.194130
  O       1.950280     -0.694232      0.318719
  H       2.001128     -1.348174     -0.390472
17
Coordinates from ORCA-job /home/rudenko/2025/kie/for_orca/ch3no2_ch3coo/orca/ts_opt/ts_opt E -550.064098088634
  C       0.282941     -1.711771      2.073322
  H       1.151328     -1.189140      1.173761
  H       0.386652     -1.141251      2.989626
  H       0.495246     -2.771656      2.156991
  N      -0.985630     -1.499511      1.496033
  O      -1.582846     -0.427952      1.711985
  O      -1.447070     -2.343366      0.704877
  C      -0.089588      1.098532     -1.507235
  O       0.749753      1.325896     -0.522024
  O      -0.241566      0.003601     -2.034239
  C      -0.857529      2.323909     -1.936235
  H      -1.499681      2.093372     -2.782723
  H      -0.164875      3.124286     -2.201731
  H      -1.465233      2.680948     -1.102289
  H       1.258328      0.429793     -0.204236
  O       1.954533     -0.667173      0.340424
  H       2.055240     -1.328516     -0.356306
17
Coordinates from ORCA-job /home/rudenko/2025/kie/for_orca/ch3no2_ch3coo/orca/ts_opt/ts_opt E -550.064207102334
  C       0.275915     -1.734942      2.051034
  H       1.149830     -1.183565      1.188400
  H       0.386550     -1.212809      2.995119
  H       0.468927     -2.801369      2.084327
  N      -0.990454     -1.475843      1.484625
  O      -1.567980     -0.404035      1.745490
  O      -1.468037     -2.279117      0.662384
  C      -0.106352      1.085905     -1.494144
  O       0.760340      1.332013     -0.537635
  O      -0.283156     -0.021022     -1.987695
  C      -0.865340      2.309966     -1.942966
  H      -1.552259      2.058930     -2.747340
  H      -0.165729      3.077428     -2.279144
  H      -1.421461      2.722825     -1.099164
  H       1.267892      0.441429     -0.198798
  O       1.972433     -0.627982      0.380371
  H       2.138879     -1.287811     -0.304864
17
Coordinates from ORCA-job /home/rudenko/2025/kie/for_orca/ch3no2_ch3coo/orca/ts_opt/ts_opt E -550.064261621957
  C       0.269545     -1.765949      2.023615
  H       1.150310     -1.183153      1.197994
  H       0.411162     -1.324109      3.003916
  H       0.419932     -2.838530      1.972808
  N      -0.994406     -1.417126      1.499061
  O      -1.523262     -0.344103      1.843772
  O      -1.515443     -2.141447      0.631804
  C      -0.102055      1.069573     -1.497655
  O       0.757207      1.335172     -0.539744
  O      -0.259943     -0.042888     -1.985500
  C      -0.880117      2.278944     -1.954231
  H      -1.557526      2.014533     -2.762407
  H      -0.191906      3.057734     -2.287865
  H      -1.448564      2.683965     -1.114800
  H       1.272426      0.454193     -0.185054
  O       1.986888     -0.593274      0.416912
  H       2.205752     -1.243537     -0.262627
17
Coordinates from ORCA-job /home/rudenko/2025/kie/for_orca/ch3no2_ch3coo/orca/ts_opt/ts_opt E -550.064390883207
  C       0.266324     -1.800073      2.007366
  H       1.136643     -1.189733      1.211677
  H       0.442074     -1.429392      3.011486
  H       0.383228     -2.871077      1.884718
  N      -1.003240     -1.385733      1.542384
  O      -1.482369     -0.313253      1.953101
  O      -1.573867     -2.049697      0.659751
  C      -0.082915      1.069374     -1.530124
  O       0.745708      1.339192     -0.547068
  O      -0.198425     -0.036267     -2.044585
  C      -0.890025      2.264194     -1.974853
  H      -1.559496      1.992499     -2.787233
  H      -0.219972      3.062443     -2.299188
  H      -1.469129      2.646906     -1.132216
  H       1.264798      0.463692     -0.178204
  O       1.983590     -0.561662      0.446257
  H       2.257076     -1.201413     -0.223269
17
Coordinates from ORCA-job /home/rudenko/2025/kie/for_orca/ch3no2_ch3coo/orca/ts_opt/ts_opt E -550.064427942248
  C       0.257821     -1.820917      1.977109
  H       1.139662     -1.195957      1.207621
  H       0.477583     -1.545608      3.003109
  H       0.308730     -2.882920      1.763920
  N      -0.994806     -1.296569      1.581231
  O      -1.402601     -0.238396      2.093578
  O      -1.623734     -1.852022      0.663948
  C      -0.055681      1.052242     -1.542528
  O       0.720120      1.333873     -0.520647
  O      -0.088020     -0.040383     -2.095582
  C      -0.909272      2.215688     -1.983300
  H      -1.489536      1.952382     -2.864258
  H      -0.278647      3.079977     -2.198414
  H      -1.583183      2.496965     -1.171564
  H       1.260661      0.469985     -0.155447
  O       1.990746     -0.551067      0.460552
  H       2.270158     -1.177272     -0.219328
17
Coordinates from ORCA-job /home/rudenko/2025/kie/for_orca/ch3no2_ch3coo/orca/ts_opt/ts_opt E -550.064281751421
  C       0.264135     -1.794974      2.004452
  H       1.150602     -1.194549      1.195855
  H       0.465858     -1.451426      3.013186
  H       0.343841     -2.865995      1.855196
  N      -0.991488     -1.324043      1.561583
  O      -1.435587     -0.252076      2.013146
  O      -1.588158     -1.937886      0.658864
  C      -0.055966      1.060310     -1.537698
  O       0.721411      1.327869     -0.512608
  O      -0.099526     -0.029211     -2.095827
  C      -0.901927      2.232598     -1.969018
  H      -1.463935      1.988244     -2.867120
  H      -0.269952      3.103417     -2.150172
  H      -1.593766      2.492272     -1.164970
  H       1.260486      0.458380     -0.164674
  O       1.986545     -0.588484      0.426094
  H       2.207426     -1.224445     -0.266290
17
Coordinates from ORCA-job /home/rudenko/2025/kie/for_orca/ch3no2_ch3coo/orca/ts_opt/ts_opt E -550.064305040804
  C       0.270461     -1.765445      2.027619
  H       1.148299     -1.188700      1.196019
  H       0.425588     -1.329359      3.008497
  H       0.409453     -2.839306      1.970283
  N      -0.994978     -1.401313      1.517134
  O      -1.508423     -0.322567      1.867726
  O      -1.533594     -2.119288      0.655730
  C      -0.079883      1.072003     -1.518716
  O       0.745990      1.329130     -0.529819
  O      -0.193855     -0.027835     -2.045467
  C      -0.884163      2.272240     -1.953112
  H      -1.524281      2.018576     -2.794476
  H      -0.214072      3.088142     -2.229347
  H      -1.495888      2.620456     -1.118446
  H       1.266627      0.449008     -0.182903
  O       1.980567     -0.604095      0.408428
  H       2.182155     -1.251649     -0.279150
17
Coordinates from ORCA-job /home/rudenko/2025/kie/for_orca/ch3no2_ch3coo/orca/ts_opt/ts_opt E -550.064192100662
  C       0.271587     -1.749962      2.034883
  H       1.162820     -1.190044      1.179384
  H       0.434823     -1.303357      3.009432
  H       0.401083     -2.825389      1.986971
  N      -0.986318     -1.375955      1.519742
  O      -1.494958     -0.293977      1.870322
  O      -1.525243     -2.086617      0.650976
  C      -0.066635      1.067512     -1.518684
  O       0.736899      1.320073     -0.509694
  O      -0.154049     -0.025589     -2.064036
  C      -0.887090      2.259845     -1.943462
  H      -1.454429      2.031573     -2.842408
  H      -0.238034      3.118964     -2.119039
  H      -1.574132      2.528045     -1.137897
  H       1.265373      0.441214     -0.179431
  O       1.979533     -0.636163      0.383603
  H       2.128770     -1.280173     -0.320663
17
Coordinates from ORCA-job /home/rudenko/2025/kie/for_orca/ch3no2_ch3coo/orca/ts_opt/ts_opt E -550.064115756197
  C       0.267668     -1.764644      2.019466
  H       1.171943     -1.193787      1.171235
  H       0.470415     -1.386472      3.015192
  H       0.346219     -2.839672      1.902581
  N      -0.978206     -1.301019      1.553376
  O      -1.431171     -0.222807      1.983840
  O      -1.562582     -1.926444      0.648347
  C      -0.042708      1.055403     -1.532296
  O       0.713962      1.311847     -0.488256
  O      -0.066739     -0.025733     -2.107111
  C      -0.901965      2.222239     -1.950528
  H      -1.370427      2.025701     -2.911850
  H      -0.306283      3.134298     -2.001015
  H      -1.677607      2.378623     -1.197043
  H       1.259199      0.442775     -0.163647
  O       1.984099     -0.637916      0.386238
  H       2.124184     -1.272391     -0.328529
17
Coordinates from ORCA-job /home/rudenko/2025/kie/for_orca/ch3no2_ch3coo/orca/ts_opt/ts_opt E -550.064123158236
  C       0.272493     -1.743706      2.039232
  H       1.184621     -1.191837      1.154050
  H       0.469584     -1.323829      3.019045
  H       0.368568     -2.820782      1.961041
  N      -0.974554     -1.315095      1.551587
  O      -1.451280     -0.232920      1.947991
  O      -1.540545     -1.974462      0.657402
  C      -0.038533      1.060858     -1.532238
  O       0.715431      1.306177     -0.483005
  O      -0.065813     -0.016657     -2.113168
  C      -0.895050      2.232191     -1.942790
  H      -1.316769      2.067689     -2.931462
  H      -0.316062      3.155724     -1.926453
  H      -1.708518      2.341326     -1.221105
  H       1.257394      0.433805     -0.170912
  O       1.977110     -0.671600      0.356864
  H       2.061924     -1.306880     -0.366078
17
Coordinates from ORCA-job /home/rudenko/2025/kie/for_orca/ch3no2_ch3coo/orca/ts_opt/ts_opt E -550.064120961423
  C       0.269125     -1.752070      2.029506
  H       1.178550     -1.190612      1.163392
  H       0.463334     -1.347138      3.016301
  H       0.362351     -2.828339      1.937545
  N      -0.977975     -1.314819      1.545539
  O      -1.448864     -0.233531      1.949665
  O      -1.547584     -1.966289      0.648642
  C      -0.045007      1.057633     -1.528925
  O       0.721558      1.310088     -0.490965
  O      -0.083534     -0.025225     -2.099430
  C      -0.897605      2.230389     -1.944260
  H      -1.357089      2.043857     -2.911956
  H      -0.301449      3.142657     -1.978826
  H      -1.681446      2.378237     -1.197413
  H       1.262821      0.438555     -0.170435
  O       1.983372     -0.652739      0.373886
  H       2.099441     -1.290655     -0.342263
17
Coordinates from ORCA-job /home/rudenko/2025/kie/for_orca/ch3no2_ch3coo/orca/ts_opt/ts_opt E -550.064131419189
  C       0.268383     -1.751472      2.029360
  H       1.178309     -1.189373      1.163395
  H       0.461000     -1.344913      3.015786
  H       0.364067     -2.827638      1.938756
  N      -0.979236     -1.317643      1.543862
  O      -1.451674     -0.235567      1.944124
  O      -1.548037     -1.973097      0.649322
  C      -0.045669      1.057942     -1.529341
  O       0.724929      1.310357     -0.494456
  O      -0.088265     -0.025547     -2.098331
  C      -0.897498      2.231766     -1.943309
  H      -1.363677      2.043186     -2.907395
  H      -0.298880      3.142121     -1.985000
  H      -1.676195      2.384463     -1.192064
  H       1.264715      0.438465     -0.172564
  O       1.984097     -0.651564      0.375834
  H       2.103633     -1.291487     -0.337978
17
Coordinates from ORCA-job /home/rudenko/2025/kie/for_orca/ch3no2_ch3coo/orca/ts_opt/ts_opt E -550.064137499559
  C       0.267206     -1.753512      2.026996
  H       1.176908     -1.188562      1.165005
  H       0.459594     -1.350697      3.015020
  H       0.362656     -2.829380      1.932653
  N      -0.980650     -1.317994      1.543115
  O      -1.451288     -0.235700      1.944679
  O      -1.551242     -1.972280      0.648967
  C      -0.046689      1.057520     -1.529791
  O       0.727173      1.311109     -0.497774
  O      -0.091903     -0.026816     -2.097002
  C      -0.898223      2.231655     -1.943591
  H      -1.374091      2.038387     -2.901989
  H      -0.296342      3.139265     -1.997409
  H      -1.669068      2.392766     -1.186077
  H       1.266277      0.439374     -0.173458
  O       1.985498     -0.646836      0.380741
  H       2.114184     -1.288297     -0.330085
17
Coordinates from ORCA-job /home/rudenko/2025/kie/for_orca/ch3no2_ch3coo/orca/ts_opt/ts_opt E -550.063766907859
  C       0.262093     -1.742369      2.019281
  H       1.205982     -1.177909      1.142599
  H       0.443577     -1.342147      3.009999
  H       0.356956     -2.817883      1.921388
  N      -0.965560     -1.289593      1.511894
  O      -1.460776     -0.228807      1.944992
  O      -1.498341     -1.902773      0.564327
  C      -0.055337      1.042304     -1.476562
  O       0.740382      1.329834     -0.468084
  O      -0.128134     -0.068098     -1.986810
  C      -0.894518      2.208473     -1.933976
  H      -1.344295      1.997577     -2.901408
  H      -0.298564      3.119065     -1.984282
  H      -1.687631      2.373652     -1.199582
  H       1.272581      0.460921     -0.144067
  O       1.989040     -0.671225      0.359003
  H       2.062545     -1.291022     -0.378712
17
Coordinates from ORCA-job /home/rudenko/2025/kie/for_orca/ch3no2_ch3coo/orca/ts_opt/ts_opt E -550.064141564448
  C       0.266697     -1.754183      2.026706
  H       1.178452     -1.187253      1.163463
  H       0.460385     -1.353730      3.015422
  H       0.361713     -2.829820      1.929403
  N      -0.980701     -1.316574      1.544665
  O      -1.451457     -0.235809      1.950653
  O      -1.551684     -1.967302      0.647956
  C      -0.047095      1.056958     -1.529737
  O       0.727994      1.311609     -0.498801
  O      -0.093550     -0.028143     -2.095299
  C      -0.898190      2.231058     -1.944439
  H      -1.370597      2.038996     -2.904794
  H      -0.297410      3.139581     -1.994283
  H      -1.671997      2.389480     -1.189339
  H       1.266641      0.440353     -0.173838
  O       1.985737     -0.646792      0.381413
  H       2.115062     -1.288428     -0.329151
17
Coordinates from ORCA-job /home/rudenko/2025/kie/for_orca/ch3no2_ch3coo/orca/ts_opt/ts_opt E -550.064140909537
  C       0.265216     -1.753971      2.022591
  H       1.178556     -1.187031      1.163812
  H       0.458903     -1.356968      3.012707
  H       0.357075     -2.829603      1.922090
  N      -0.980417     -1.311382      1.540130
  O      -1.446554     -0.228564      1.945793
  O      -1.554036     -1.959927      0.643538
  C      -0.048633      1.053963     -1.528004
  O       0.729347      1.309383     -0.499685
  O      -0.096790     -0.031642     -2.092563
  C      -0.900265      2.228090     -1.941679
  H      -1.376660      2.034636     -2.899782
  H      -0.298497      3.135735     -1.995807
  H      -1.670873      2.389124     -1.183897
  H       1.268918      0.438711     -0.174157
  O       1.989088     -0.643579      0.386285
  H       2.125622     -1.286975     -0.321371
17
Coordinates from ORCA-job /home/rudenko/2025/kie/for_orca/ch3no2_ch3coo/orca/ts_opt/ts_opt E -550.064145783189
  C       0.267472     -1.748846      2.029810
  H       1.183529     -1.186103      1.159931
  H       0.457846     -1.340896      3.016081
  H       0.365332     -2.824844      1.939682
  N      -0.977472     -1.315678      1.539649
  O      -1.453688     -0.234640      1.939482
  O      -1.541635     -1.970131      0.640915
  C      -0.046157      1.056379     -1.525317
  O       0.727848      1.311274     -0.493176
  O      -0.091707     -0.028857     -2.090388
  C      -0.897191      2.230066     -1.940978
  H      -1.362092      2.040866     -2.905552
  H      -0.299381      3.140918     -1.981945
  H      -1.677215      2.381901     -1.190867
  H       1.265018      0.440005     -0.170549
  O       1.983227     -0.656137      0.374388
  H       2.096266     -1.295276     -0.341164
17
Coordinates from ORCA-job /home/rudenko/2025/kie/for_orca/ch3no2_ch3coo/orca/ts_opt/ts_opt E -550.064143798255
  C       0.264222     -1.765782      2.017771
  H       1.170981     -1.188431      1.167198
  H       0.469272     -1.388044      3.013136
  H       0.348654     -2.840027      1.897844
  N      -0.985612     -1.309589      1.557212
  O      -1.438830     -0.229146      1.982352
  O      -1.575304     -1.943984      0.661413
  C      -0.047211      1.055981     -1.539092
  O       0.726826      1.310915     -0.508101
  O      -0.091085     -0.028150     -2.107149
  C      -0.901677      2.228638     -1.951413
  H      -1.377824      2.035318     -2.909668
  H      -0.301589      3.137468     -2.004748
  H      -1.672422      2.387559     -1.193338
  H       1.268658      0.441250     -0.178499
  O       1.989707     -0.629115      0.397415
  H       2.153234     -1.274859     -0.302329
17
Coordinates from ORCA-job /home/rudenko/2025/kie/for_orca/ch3no2_ch3coo/orca/ts_opt/ts_opt E -550.064146326656
  C       0.264472     -1.757792      2.019572
  H       1.174792     -1.187626      1.165287
  H       0.460241     -1.364660      3.010858
  H       0.355597     -2.833121      1.915200
  N      -0.982895     -1.313424      1.542087
  O      -1.445679     -0.230282      1.950214
  O      -1.560941     -1.960918      0.647839
  C      -0.050703      1.054137     -1.529693
  O       0.730224      1.309988     -0.503935
  O      -0.102428     -0.032294     -2.092488
  C      -0.900565      2.229425     -1.943929
  H      -1.385756      2.031996     -2.896791
  H      -0.294717      3.133649     -2.009349
  H      -1.663865      2.399570     -1.180808
  H       1.269952      0.439410     -0.176249
  O       1.990111     -0.636463      0.392522
  H       2.142160     -1.281596     -0.310337
17
Coordinates from ORCA-job /home/rudenko/2025/kie/for_orca/ch3no2_ch3coo/orca/ts_opt/ts_opt E -550.064149670959
  C       0.264205     -1.760162      2.018741
  H       1.172531     -1.188200      1.166228
  H       0.461553     -1.369159      3.010563
  H       0.354913     -2.835319      1.912268
  N      -0.984488     -1.315082      1.544727
  O      -1.445604     -0.232027      1.954678
  O      -1.565117     -1.961950      0.651860
  C      -0.050900      1.054948     -1.531883
  O       0.730314      1.310561     -0.506400
  O      -0.103232     -0.031420     -2.094819
  C      -0.900600      2.230517     -1.945740
  H      -1.389531      2.031642     -2.896379
  H      -0.293399      3.133525     -2.015652
  H      -1.660724      2.403955     -1.180216
  H       1.270159      0.439913     -0.177620
  O       1.990225     -0.632964      0.395110
  H       2.149695     -1.278778     -0.305468
17
Coordinates from ORCA-job /home/rudenko/2025/kie/for_orca/ch3no2_ch3coo/orca/ts_opt/ts_opt E -550.064151680442
  C       0.264187     -1.760305      2.019656
  H       1.172297     -1.188370      1.165842
  H       0.461401     -1.367554      3.010809
  H       0.356035     -2.835519      1.914831
  N      -0.984961     -1.317127      1.545264
  O      -1.447225     -0.234034      1.953922
  O      -1.564982     -1.965669      0.653204
  C      -0.050603      1.055845     -1.532402
  O       0.730432      1.311214     -0.506664
  O      -0.102978     -0.030406     -2.095521
  C      -0.900173      2.231547     -1.946101
  H      -1.390712      2.032022     -2.895769
  H      -0.292467      3.134072     -2.017942
  H      -1.658921      2.406340     -1.179523
  H       1.269825      0.440388     -0.177843
  O       1.989488     -0.633433      0.394463
  H       2.149355     -1.279012     -0.306226
