10
Coordinates from ORCA-job /home/rudenko/2025/kie/for_orca/ch3no2_oh/orca/ts_opt/ts_opt
  C   -0.51800694854235      0.40083482348061     -0.34248959599342
  H   0.09787041028759     -0.20943814569052     -0.99872095364457
  H   -0.43226360806212      1.45438673282782     -0.59354929813156
  H   -0.30468141217160      0.21068204376093      0.70458161967334
  N   -1.93628263033650     -0.00871532188966     -0.57945651433801
  O   -2.49044128368143     -0.68872005165326      0.26917454603000
  O   -2.45982935462092      0.34515916052493     -1.62447571793286
  H   2.38123780993911     -1.18031510830511      1.31445572990764
  O   3.03018024479219     -0.46582677317170      1.23972951431762
  H   2.63221677239604      0.14195264011598      0.61075067011182
