!  opt B3LYP def2-TZVP CPCM D3 
%pal nprocs 102 end
%cpcm epsilon 78.4 end 
*xyz -1 1 
C   1.53294806 3.05141345 2.07784035
C   1.8023646 1.68969567 1.94998079
C   0.75782023 0.77265465 1.79834053
C   -0.56823832 1.22328531 1.77831582
C   -0.79617942 2.58311794 1.90809381
C   0.21810675 3.51654902 2.05690623
H   2.35425617 3.76060968 2.19415376
H   2.83590921 1.34050465 1.96760519
H   -1.38550159 0.50943852 1.66378656
Cl   -2.42857257 3.13562851 1.87825265
H   0.00782424 4.58107068 2.15540724
C   1.01156293 -0.6636513 1.68661982
C   0.96472228 -1.46583294 2.94050007
H   1.44086784 -2.45143956 2.82865646
H   -0.07367836 -1.64694893 3.259813
H   1.46988406 -0.95128397 3.77097647
N   1.10365386 -1.24253076 0.49481257
O   1.21479176 -2.49461492 0.36464328
O   1.12339942 -0.55785462 -0.56863135
H   3.17941788 -0.79652388 1.83883217
O   6.53148993 -0.82637275 3.06833312
H   7.07078269 -0.40518593 2.3891896
H   5.64231855 -0.82622166 2.69761765
H   4.34633109 -1.4039717 1.07240915
O   4.1510296 -0.80618134 1.80680309
*
