!  NUMFREQ B3LYP def2-TZVP CPCM D3 
%pal nprocs 102 end
%cpcm epsilon 78.4 end 
*xyz -1 1 
C   0.75464106988156 3.32776814511743 2.00171725625088
C   1.30896856093744 2.05249101071087 1.95868500493507
C   0.49370121555443 0.94114154063679 1.76418940190437
C   -0.88246861842619 1.11384997052822 1.61144241001311
C   -1.41387817357137 2.39298569791523 1.64718460027702
C   -0.61345589005481 3.51131813944539 1.84377583699424
H   1.39190935255354 4.18932141608431 2.1546946561778
H   2.37586868177493 1.91045621197386 2.07397801186246
H   -1.53458729995063 0.2635391336305 1.4602840577132
Cl   -3.1430058641592 2.60294701590368 1.44272207453936
H   -1.05181038799267 4.49917885159294 1.87088055683062
C   1.09263010782792 -0.44487238259075 1.76655212130059
C   0.60970324088863 -1.32142622922739 2.90556614907726
H   1.10347345873824 -2.29169666740609 2.88964464848915
H   -0.46989472429659 -1.47101262089898 2.87807531950069
H   0.86475936491457 -0.82147131881858 3.84076914937691
N   0.83543845301885 -1.0981000099206 0.41717995022083
O   1.12849411789138 -0.45061170011752 -0.5790050402943
O   0.40197107120892 -2.23895415026277 0.37651726209398
H   2.20041190619189 -0.36105583689524 1.78308866395 M = 2
O   6.48871184531891 -0.85001615720616 2.14298172648373
H   6.93543040646553 -0.14043591213989 2.61670171725832
H   5.51779769108416 -0.50708894708206 1.98281441887493
H   4.06328236076692 0.56467312332117 1.05144911348795
O   4.0937108334335 -0.0603152042944 1.78440016268165
*
