38
Coordinates from ORCA-job /home/rudenko/2025/kie/for_orca/mcl-morpholine/orca/ts_opt/ts_opt E -1339.097234908483
  C      -1.607489      2.468898      0.988024
  C      -1.679876      1.082899      1.031166
  C      -1.893235      0.336869     -0.132529
  C      -2.039647      1.018278     -1.342829
  C      -1.952548      2.401720     -1.366846
  C      -1.736526      3.148703     -0.217841
  H      -1.433363      3.027563      1.898701
  H      -1.554178      0.570928      1.975526
  H      -2.207984      0.482110     -2.264561
  Cl     -2.123884      3.230723     -2.904976
  H      -1.667701      4.226374     -0.264994
  C      -1.999041     -1.154393     -0.004082
  C      -3.245772     -1.645830      0.706915
  H      -3.162113     -2.699928      0.967284
  H      -4.143493     -1.510101      0.097007
  H      -3.369428     -1.075680      1.626811
  N      -1.706297     -1.886443     -1.201383
  O      -2.314137     -2.935744     -1.440850
  O      -0.764796     -1.512359     -1.933935
  N       1.509164     -0.428373     -0.436814
  C       2.729998     -1.207490     -0.783116
  C       3.764296     -1.023958      0.312644
  O       4.065660      0.354622      0.511720
  C       2.902197      1.083702      0.895457
  C       1.826221      1.001468     -0.170651
  H       0.915240      1.497956      0.157528
  H       2.168238      1.452570     -1.102288
  H       3.204493      2.120100      1.035331
  H       2.518979      0.695236      1.847204
  H       4.692409     -1.517849      0.029876
  H       3.401060     -1.463192      1.250090
  H       3.108534     -0.844571     -1.738679
  H      -0.960629     -1.468194      0.736161
  H       0.815188     -0.509923     -1.187165
  H       2.446554     -2.254611     -0.880133
  H       0.341759     -2.553924      1.429160
  H       1.010684     -0.898735      0.423120
  O       0.141461     -1.609425      1.453946
38
Coordinates from ORCA-job /home/rudenko/2025/kie/for_orca/mcl-morpholine/orca/ts_opt/ts_opt E -1339.094003902328
  C      -1.753146      2.456075      1.101784
  C      -1.769213      1.071602      1.099360
  C      -1.853116      0.355728     -0.097748
  C      -1.923196      1.062974     -1.298499
  C      -1.893976      2.447476     -1.275888
  C      -1.811540      3.163380     -0.090513
  H      -1.684185      2.993428      2.038935
  H      -1.708038      0.535397      2.036627
  H      -1.995598      0.548154     -2.244607
  Cl     -1.974595      3.318929     -2.797900
  H      -1.793548      4.239113     -0.098300
  C      -1.937911     -1.134173     -0.000790
  C      -3.221123     -1.685557      0.591434
  H      -3.120772     -2.741841      0.836609
  H      -4.068652     -1.567302     -0.089756
  H      -3.442865     -1.141684      1.508822
  N      -1.534579     -1.834791     -1.184599
  O      -2.091020     -2.896332     -1.486808
  O      -0.553430     -1.419161     -1.838458
  N       1.459168     -0.470194     -0.433994
  C       2.642628     -1.315545     -0.751278
  C       3.719942     -1.069880      0.289374
  O       4.067915      0.311097      0.355941
  C       2.940797      1.108705      0.712860
  C       1.824208      0.970570     -0.304774
  H       0.935767      1.525795      0.011905
  H       2.142525      1.329223     -1.283779
  H       3.278499      2.142890      0.751390
  H       2.581328      0.816452      1.707323
  H       4.622753     -1.615902      0.020911
  H       3.377825     -1.413633      1.273480
  H       2.997051     -1.049625     -1.747152
  H      -0.952625     -1.417357      0.813316
  H       0.736613     -0.592771     -1.151007
  H       2.325644     -2.357525     -0.746659
  H       0.335500     -2.378334      1.705413
  H       0.979121     -0.850042      0.480285
  O       0.115847     -1.445338      1.586741
38
Coordinates from ORCA-job /home/rudenko/2025/kie/for_orca/mcl-morpholine/orca/ts_opt/ts_opt E -1339.097256865697
  C      -1.615448      2.467583      1.016790
  C      -1.686137      1.081328      1.046392
  C      -1.898522      0.346470     -0.124497
  C      -2.045945      1.039149     -1.328220
  C      -1.960440      2.422816     -1.338727
  C      -1.745347      3.158654     -0.182416
  H      -1.442195      3.017658      1.932842
  H      -1.560196      0.560295      1.985728
  H      -2.213878      0.511730     -2.255057
  Cl     -2.132888      3.266769     -2.868569
  H      -1.678095      4.236556     -0.218855
  C      -2.003896     -1.145623     -0.008971
  C      -3.248618     -1.646294      0.699101
  H      -3.162342     -2.702569      0.949571
  H      -4.147491     -1.506836      0.091751
  H      -3.372148     -1.084970      1.624431
  N      -1.714048     -1.866677     -1.213712
  O      -2.320367     -2.915268     -1.459611
  O      -0.779082     -1.482668     -1.949365
  N       1.529375     -0.463963     -0.457959
  C       2.763350     -1.240749     -0.759477
  C       3.775555     -1.015778      0.349111
  O       4.060365      0.370867      0.513839
  C       2.883383      1.099285      0.855443
  C       1.827907      0.976133     -0.227078
  H       0.906109      1.472984      0.070311
  H       2.182525      1.403920     -1.164974
  H       3.173533      2.142148      0.970911
  H       2.486421      0.734459      1.810906
  H       4.713278     -1.508437      0.097610
  H       3.399213     -1.431498      1.292097
  H       3.155997     -0.901761     -1.718132
  H      -0.964319     -1.462573      0.729599
  H       0.850773     -0.574243     -1.218604
  H       2.491375     -2.292945     -0.831345
  H       0.332304     -2.548975      1.438370
  H       1.019553     -0.914538      0.405901
  O       0.140387     -1.602436      1.444864
38
Coordinates from ORCA-job /home/rudenko/2025/kie/for_orca/mcl-morpholine/orca/ts_opt/ts_opt E -1339.097257677509
  C      -1.601356      2.470313      0.996562
  C      -1.671709      1.083975      1.034115
  C      -1.890041      0.342539     -0.131595
  C      -2.042103      1.028995     -1.338374
  C      -1.958315      2.412742     -1.356712
  C      -1.739028      3.155274     -0.205475
  H      -1.424648      3.025417      1.908920
  H      -1.541955      0.568149      1.975771
  H      -2.214371      0.496694     -2.261549
  Cl     -2.139492      3.248211     -2.890276
  H      -1.675349      4.233648     -0.247838
  C      -1.999355     -1.149063     -0.007754
  C      -3.244903     -1.641324      0.704896
  H      -3.162173     -2.696542      0.960836
  H      -4.144180     -1.501793      0.098134
  H      -3.365012     -1.074640      1.627434
  N      -1.712249     -1.877945     -1.208383
  O      -2.317782     -2.929313     -1.444561
  O      -0.773071     -1.503576     -1.943741
  N       1.517486     -0.447490     -0.446247
  C       2.747087     -1.221452     -0.772803
  C       3.770013     -1.018842      0.330174
  O       4.058724      0.364069      0.517625
  C       2.886192      1.087711      0.883864
  C       1.820719      0.987087     -0.191138
  H       0.902828      1.478796      0.124636
  H       2.167141      1.432441     -1.123880
  H       3.179216      2.127695      1.016630
  H       2.497252      0.705272      1.835684
  H       4.704506     -1.508253      0.060928
  H       3.401784     -1.451291      1.268810
  H       3.131579     -0.866012     -1.728761
  H      -0.961168     -1.467737      0.730156
  H       0.831609     -0.541745     -1.202455
  H       2.472010     -2.271599     -0.861113
  H       0.335324     -2.557820      1.428718
  H       1.013594     -0.910699      0.413649
  O       0.141197     -1.611889      1.445114
38
Coordinates from ORCA-job /home/rudenko/2025/kie/for_orca/mcl-morpholine/orca/ts_opt/ts_opt E -1339.097265791798
  C      -1.602915      2.470265      1.002601
  C      -1.673118      1.083890      1.037651
  C      -1.891967      0.344606     -0.129302
  C      -2.044964      1.033187     -1.334723
  C      -1.960965      2.416935     -1.350636
  C      -1.740938      3.157359     -0.198156
  H      -1.425451      3.023687      1.915830
  H      -1.542448      0.566317      1.978240
  H      -2.217285      0.502474     -2.258843
  Cl     -2.142467      3.255133     -2.882674
  H      -1.677088      4.235693     -0.238606
  C      -2.000381     -1.147131     -0.008258
  C      -3.245468     -1.641002      0.704119
  H      -3.162313     -2.696670      0.958036
  H      -4.145136     -1.500547      0.098152
  H      -3.365174     -1.076066      1.627776
  N      -1.713172     -1.873254     -1.210450
  O      -2.320886     -2.922327     -1.451354
  O      -0.780565     -1.491209     -1.950250
  N       1.522774     -0.456735     -0.450828
  C       2.756136     -1.228984     -0.766946
  C       3.773923     -1.015699      0.338783
  O       4.057536      0.369342      0.518120
  C       2.881273      1.091657      0.874814
  C       1.820484      0.980544     -0.203794
  H       0.899788      1.471353      0.105223
  H       2.169177      1.421074     -1.137983
  H       3.170500      2.133414      1.001902
  H       2.489657      0.714274      1.827567
  H       4.711053     -1.503874      0.076556
  H       3.403311     -1.443084      1.278804
  H       3.143465     -0.878935     -1.723756
  H      -0.961638     -1.467326      0.728884
  H       0.840740     -0.558130     -1.209575
  H       2.484632     -2.280550     -0.849174
  H       0.332585     -2.559979      1.428800
  H       1.016249     -0.916214      0.410154
  O       0.141057     -1.613486      1.443299
38
Coordinates from ORCA-job /home/rudenko/2025/kie/for_orca/mcl-morpholine/orca/ts_opt/ts_opt E -1339.096721236460
  C      -1.588678      2.470506      1.098532
  C      -1.655025      1.083770      1.084677
  C      -1.889627      0.385736     -0.104245
  C      -2.063479      1.116873     -1.281516
  C      -1.980390      2.500089     -1.249414
  C      -1.743853      3.199353     -0.074785
  H      -1.397519      2.991361      2.028049
  H      -1.509315      0.533210      2.004028
  H      -2.249055      0.619817     -2.221070
  Cl     -2.185398      3.392291     -2.747778
  H      -1.682995      4.278627     -0.077482
  C      -2.004859     -1.109289     -0.028909
  C      -3.245298     -1.619247      0.679836
  H      -3.166201     -2.683115      0.898911
  H      -4.149729     -1.454184      0.087158
  H      -3.352579     -1.083874      1.622360
  N      -1.743345     -1.806234     -1.253465
  O      -2.324207     -2.873333     -1.479610
  O      -0.810299     -1.423773     -1.991914
  N       1.585716     -0.610364     -0.515783
  C       2.880094     -1.330162     -0.671915
  C       3.807600     -0.942264      0.465083
  O       3.997336      0.469167      0.516613
  C       2.759557      1.145279      0.725580
  C       1.780741      0.860422     -0.397704
  H       0.813674      1.316753     -0.193357
  H       2.161863      1.231105     -1.349315
  H       2.978210      2.211059      0.762655
  H       2.328187      0.838921      1.686539
  H       4.787060     -1.392347      0.311992
  H       3.400893     -1.296894      1.420298
  H       3.310177     -1.055537     -1.635019
  H      -0.962198     -1.464781      0.693253
  H       0.964953     -0.826804     -1.303048
  H       2.675137     -2.399849     -0.659169
  H       0.283522     -2.608052      1.401156
  H       1.046415     -1.011620      0.351365
  O       0.142915     -1.652615      1.397413
38
Coordinates from ORCA-job /home/rudenko/2025/kie/for_orca/mcl-morpholine/orca/ts_opt/ts_opt E -1339.097254628716
  C      -1.593747      2.476217      1.021287
  C      -1.660569      1.089313      1.045601
  C      -1.894091      0.359321     -0.124318
  C      -2.064901      1.057795     -1.321615
  C      -1.984730      2.441829     -1.326957
  C      -1.750672      3.173334     -0.171442
  H      -1.404625      3.022266      1.936617
  H      -1.515341      0.564024      1.979804
  H      -2.248169      0.534482     -2.247837
  Cl     -2.189729      3.292305     -2.849288
  H      -1.691382      4.252430     -0.203546
  C      -2.000750     -1.133280     -0.014199
  C      -3.241631     -1.631282      0.703187
  H      -3.157958     -2.688817      0.948785
  H      -4.145154     -1.485419      0.104225
  H      -3.354587     -1.073045      1.631753
  N      -1.721096     -1.851368     -1.222749
  O      -2.323301     -2.904284     -1.461563
  O      -0.797207     -1.460858     -1.969297
  N       1.545835     -0.503047     -0.471149
  C       2.799673     -1.260064     -0.740680
  C       3.789289     -1.000096      0.380410
  O       4.043204      0.394083      0.530711
  C       2.846336      1.102094      0.844715
  C       1.811402      0.945091     -0.253019
  H       0.875522      1.424207      0.025709
  H       2.170997      1.370639     -1.189969
  H       3.113298      2.151927      0.952527
  H       2.441178      0.740207      1.797823
  H       4.740753     -1.476616      0.150380
  H       3.406575     -1.410969      1.322907
  H       3.201032     -0.927551     -1.697947
  H      -0.959181     -1.465588      0.714335
  H       0.882497     -0.632970     -1.241757
  H       2.548863     -2.318248     -0.801153
  H       0.312825     -2.584537      1.405016
  H       1.027326     -0.949390      0.389589
  O       0.142214     -1.634135      1.423103
38
Coordinates from ORCA-job /home/rudenko/2025/kie/for_orca/mcl-morpholine/orca/ts_opt/ts_opt E -1339.097040937624
  C      -1.624953      2.461502      0.960040
  C      -1.706112      1.076926      1.019522
  C      -1.890424      0.316674     -0.139775
  C      -2.002197      0.982174     -1.362440
  C      -1.903566      2.364326     -1.402823
  C      -1.712721      3.124900     -0.258280
  H      -1.471607      3.031436      1.867466
  H      -1.608937      0.576986      1.973593
  H      -2.147704      0.434320     -2.281191
  Cl     -2.024627      3.173523     -2.956307
  H      -1.630630      4.200215     -0.318072
  C      -1.998129     -1.172679      0.004824
  C      -3.250446     -1.660803      0.707151
  H      -3.165903     -2.712003      0.979459
  H      -4.142314     -1.534508      0.086725
  H      -3.385193     -1.081371      1.619610
  N      -1.692074     -1.915914     -1.181564
  O      -2.295663     -2.968530     -1.415868
  O      -0.735772     -1.554702     -1.900896
  N       1.472490     -0.359894     -0.403140
  C       2.658502     -1.155148     -0.823491
  C       3.733913     -1.043429      0.242094
  O       4.079995      0.317674      0.484965
  C       2.950754      1.061984      0.936848
  C       1.837480      1.050148     -0.093797
  H       0.951201      1.559311      0.283480
  H       2.161386      1.527250     -1.018974
  H       3.286524      2.083627      1.106144
  H       2.589057      0.646510      1.885543
  H       4.638000     -1.549595     -0.092262
  H       3.390715     -1.510946      1.173463
  H       3.014075     -0.762756     -1.776190
  H      -0.963724     -1.469997      0.760569
  H       0.751030     -0.397326     -1.131628
  H       2.343432     -2.189628     -0.952886
  H       0.364407     -2.518879      1.473270
  H       0.992223     -0.851209      0.456311
  O       0.137513     -1.580167      1.488507
38
Coordinates from ORCA-job /home/rudenko/2025/kie/for_orca/mcl-morpholine/orca/ts_opt/ts_opt E -1339.097273619707
  C      -1.608318      2.473318      1.002676
  C      -1.678551      1.086929      1.037750
  C      -1.896365      0.347565     -0.129339
  C      -2.050325      1.036157     -1.334654
  C      -1.966000      2.419850     -1.350618
  C      -1.745168      3.160302     -0.198264
  H      -1.430531      3.026736      1.915843
  H      -1.547341      0.569297      1.978266
  H      -2.222162      0.505401     -2.258806
  Cl     -2.147205      3.257986     -2.882709
  H      -1.679364      4.238487     -0.239075
  C      -2.000367     -1.144444     -0.008841
  C      -3.242925     -1.641526      0.705800
  H      -3.156512     -2.696873      0.959977
  H      -4.143954     -1.503690      0.101237
  H      -3.362573     -1.076566      1.629429
  N      -1.711944     -1.870504     -1.210484
  O      -2.313248     -2.924263     -1.447306
  O      -0.780073     -1.486985     -1.950560
  N       1.525790     -0.458494     -0.453023
  C       2.759100     -1.231165     -0.767485
  C       3.774521     -1.018858      0.340571
  O       4.058629      0.365909      0.521123
  C       2.882073      1.088968      0.875464
  C       1.823663      0.978739     -0.205551
  H       0.902434      1.469764      0.101336
  H       2.174646      1.419130     -1.138919
  H       3.171722      2.130492      1.003508
  H       2.487988      0.711565      1.827193
  H       4.711939     -1.507517      0.080334
  H       3.401491     -1.446268      1.279611
  H       3.148284     -0.880830     -1.723427
  H      -0.959711     -1.464138      0.727456
  H       0.844629     -0.558876     -1.212583
  H       2.487087     -2.282529     -0.850529
  H       0.328866     -2.561397      1.425718
  H       1.018094     -0.917610      0.407401
  O       0.141681     -1.614058      1.441480
38
Coordinates from ORCA-job /home/rudenko/2025/kie/for_orca/mcl-morpholine/orca/ts_opt/ts_opt E -1339.097277468504
  C      -1.601434      2.475348      1.004935
  C      -1.669518      1.088759      1.037980
  C      -1.893633      0.351165     -0.129006
  C      -2.053924      1.041656     -1.332364
  C      -1.971936      2.425480     -1.346414
  C      -1.746711      3.164393     -0.193875
  H      -1.419684      3.027400      1.918157
  H      -1.533149      0.569725      1.977000
  H      -2.230114      0.512221     -2.256488
  Cl     -2.163018      3.265917     -2.876146
  H      -1.684617      4.242890     -0.232919
  C      -1.999801     -1.140685     -0.010462
  C      -3.241705     -1.636570      0.706298
  H      -3.156833     -2.692506      0.958559
  H      -4.143860     -1.495941      0.104032
  H      -3.358098     -1.072884      1.631101
  N      -1.715339     -1.865084     -1.213706
  O      -2.317148     -2.918841     -1.449618
  O      -0.786828     -1.479900     -1.957257
  N       1.530634     -0.471657     -0.456874
  C       2.770828     -1.237724     -0.761023
  C       3.779974     -1.012799      0.350292
  O       4.053533      0.374852      0.525080
  C       2.870376      1.091226      0.870865
  C       1.817498      0.968702     -0.214259
  H       0.891569      1.454356      0.087083
  H       2.169221      1.407809     -1.147954
  H       3.152169      2.135320      0.995436
  H       2.474718      0.715418      1.822566
  H       4.721958     -1.496074      0.096482
  H       3.406004     -1.438296      1.289833
  H       3.162039     -0.889990     -1.717075
  H      -0.958392     -1.466028      0.723511
  H       0.854003     -0.579340     -1.219653
  H       2.506292     -2.291349     -0.839682
  H       0.322625     -2.573177      1.416813
  H       1.020481     -0.929140      0.402969
  O       0.141818     -1.624652      1.435783
38
Coordinates from ORCA-job /home/rudenko/2025/kie/for_orca/mcl-morpholine/orca/ts_opt/ts_opt E -1339.097279493818
  C      -1.604334      2.475413      1.005060
  C      -1.672615      1.088845      1.038195
  C      -1.894620      0.351058     -0.129074
  C      -2.053451      1.041414     -1.332730
  C      -1.971117      2.425206     -1.346869
  C      -1.747255      3.164234     -0.194130
  H      -1.423730      3.027569      1.918447
  H      -1.537486      0.569942      1.977473
  H      -2.228138      0.511868     -2.257046
  Cl     -2.159406      3.265439     -2.877057
  H      -1.684332      4.242668     -0.233326
  C      -1.999823     -1.140850     -0.010469
  C      -3.241477     -1.637568      0.706097
  H      -3.155661     -2.693273      0.958974
  H      -4.143538     -1.498157      0.103406
  H      -3.358763     -1.073473      1.630547
  N      -1.714232     -1.865705     -1.213108
  O      -2.315098     -2.920129     -1.448589
  O      -0.785193     -1.480823     -1.956228
  N       1.530054     -0.469998     -0.456245
  C       2.769060     -1.237207     -0.762034
  C       3.779471     -1.014074      0.348479
  O       4.054859      0.373140      0.523789
  C       2.872845      1.090746      0.870963
  C       1.818824      0.969935     -0.213231
  H       0.893792      1.456619      0.089115
  H       2.170242      1.408974     -1.147068
  H       3.155969      2.134456      0.995721
  H       2.477623      0.714997      1.822873
  H       4.720637     -1.498320      0.093510
  H       3.405878     -1.439662      1.288128
  H       3.159749     -0.889324     -1.718249
  H      -0.958130     -1.465232      0.724463
  H       0.852588     -0.576535     -1.218453
  H       2.503273     -2.290483     -0.841094
  H       0.322094     -2.571400      1.418868
  H       1.020268     -0.927425      0.403703
  O       0.141173     -1.622886      1.437188
38
Coordinates from ORCA-job /home/rudenko/2025/kie/for_orca/mcl-morpholine/orca/ts_opt/ts_opt E -1339.097281376921
  C      -1.605046      2.475825      1.005080
  C      -1.673020      1.089238      1.038194
  C      -1.894436      0.351382     -0.129152
  C      -2.052793      1.041713     -1.332901
  C      -1.970834      2.425518     -1.346998
  C      -1.747720      3.164617     -0.194152
  H      -1.425006      3.028023      1.918552
  H      -1.538243      0.570396      1.977560
  H      -2.226962      0.512106     -2.257281
  Cl     -2.158784      3.265709     -2.877258
  H      -1.685173      4.243078     -0.233312
  C      -1.999549     -1.140469     -0.010638
  C      -3.240907     -1.637486      0.706246
  H      -3.154674     -2.693094      0.959382
  H      -4.143105     -1.498573      0.103634
  H      -3.358287     -1.073197      1.630562
  N      -1.713797     -1.865351     -1.213008
  O      -2.314080     -2.920254     -1.448111
  O      -0.785155     -1.480114     -1.956563
  N       1.529901     -0.470468     -0.456089
  C       2.768977     -1.237433     -0.762141
  C       3.779632     -1.014126      0.348110
  O       4.054814      0.373133      0.523375
  C       2.872749      1.090502      0.870873
  C       1.818441      0.969519     -0.213022
  H       0.893403      1.455977      0.089677
  H       2.169467      1.408686     -1.146941
  H       3.155695      2.134266      0.995572
  H       2.477863      0.714663      1.822889
  H       4.720814     -1.498189      0.092855
  H       3.406390     -1.439826      1.287849
  H       3.159345     -0.889471     -1.718456
  H      -0.957319     -1.465154      0.724837
  H       0.852284     -0.577009     -1.218209
  H       2.503370     -2.290758     -0.841155
  H       0.320750     -2.572111      1.418965
  H       1.020321     -0.927831      0.403732
  O       0.140677     -1.623435      1.437443
38
Coordinates from ORCA-job /home/rudenko/2025/kie/for_orca/mcl-morpholine/orca/ts_opt/ts_opt E -1339.097284203642
  C      -1.605952      2.476127      1.005483
  C      -1.673671      1.089518      1.038361
  C      -1.894425      0.351757     -0.129186
  C      -2.052369      1.042269     -1.332908
  C      -1.970700      2.426088     -1.346751
  C      -1.748244      3.165073     -0.193701
  H      -1.426435      3.028218      1.919123
  H      -1.539250      0.570593      1.977734
  H      -2.226004      0.512765     -2.257437
  Cl     -2.158152      3.266475     -2.876973
  H      -1.685963      4.243561     -0.232671
  C      -1.999418     -1.140065     -0.010932
  C      -3.240457     -1.637492      0.706210
  H      -3.153720     -2.692997      0.959600
  H      -4.142777     -1.499163      0.103634
  H      -3.358038     -1.073034      1.630395
  N      -1.713341     -1.864981     -1.212950
  O      -2.312907     -2.920451     -1.447671
  O      -0.784977     -1.479433     -1.956843
  N       1.529977     -0.471124     -0.456202
  C       2.769171     -1.237987     -0.762020
  C       3.779859     -1.014146      0.348087
  O       4.054823      0.373211      0.522885
  C       2.872661      1.090480      0.870256
  C       1.818266      0.968996     -0.213498
  H       0.893168      1.455327      0.089210
  H       2.169075      1.407975     -1.147581
  H       3.155429      2.134334      0.994603
  H       2.477926      0.714871      1.822427
  H       4.721099     -1.498136      0.092901
  H       3.406771     -1.439619      1.287992
  H       3.159409     -0.890282     -1.718480
  H      -0.956494     -1.465009      0.725302
  H       0.852355     -0.577927     -1.218329
  H       2.503733     -2.291381     -0.840676
  H       0.319167     -2.572549      1.419346
  H       1.020460     -0.928159      0.403552
  O       0.139945     -1.623706      1.437708
38
Coordinates from ORCA-job /home/rudenko/2025/kie/for_orca/mcl-morpholine/orca/ts_opt/ts_opt E -1339.097288149625
  C      -1.606620      2.476440      1.005760
  C      -1.674054      1.089809      1.038454
  C      -1.894283      0.352099     -0.129245
  C      -2.051903      1.042759     -1.332949
  C      -1.970585      2.426592     -1.346586
  C      -1.748722      3.165512     -0.193375
  H      -1.427552      3.028459      1.919533
  H      -1.539896      0.570835      1.977839
  H      -2.225093      0.513320     -2.257594
  Cl     -2.157789      3.267124     -2.876768
  H      -1.686811      4.244031     -0.232186
  C      -1.999255     -1.139665     -0.011244
  C      -3.239971     -1.637455      0.706179
  H      -3.152758     -2.692859      0.959834
  H      -4.142421     -1.499706      0.103646
  H      -3.357744     -1.072817      1.630227
  N      -1.712835     -1.864584     -1.212850
  O      -2.311695     -2.920625     -1.447239
  O      -0.784767     -1.478676     -1.957115
  N       1.529969     -0.471728     -0.456274
  C       2.769286     -1.238472     -0.761937
  C       3.780022     -1.014164      0.348027
  O       4.054749      0.373284      0.522449
  C       2.872494      1.090411      0.869784
  C       1.817990      0.968510     -0.213816
  H       0.892824      1.454652      0.088969
  H       2.168543      1.407390     -1.148034
  H       3.155075      2.134347      0.993867
  H       2.477933      0.714945      1.822084
  H       4.721320     -1.498048      0.092862
  H       3.407106     -1.439478      1.288073
  H       3.159364     -0.890951     -1.718523
  H      -0.955446     -1.464975      0.725910
  H       0.852307     -0.578764     -1.218395
  H       2.504013     -2.291929     -0.840297
  H       0.317511     -2.573082      1.419635
  H       1.020578     -0.928463      0.403355
  O       0.139118     -1.624077      1.437939
38
Coordinates from ORCA-job /home/rudenko/2025/kie/for_orca/mcl-morpholine/orca/ts_opt/ts_opt E -1339.097294508588
  C      -1.607632      2.476782      1.006484
  C      -1.674730      1.090121      1.038796
  C      -1.894191      0.352599     -0.129190
  C      -2.051301      1.043564     -1.332812
  C      -1.970344      2.427412     -1.346052
  C      -1.749310      3.166128     -0.192543
  H      -1.429193      3.028612      1.920494
  H      -1.540988      0.570979      1.978151
  H      -2.223816      0.514303     -2.257678
  Cl     -2.156956      3.268279     -2.876135
  H      -1.687781      4.244686     -0.231047
  C      -1.999140     -1.139117     -0.011656
  C      -3.239480     -1.637415      0.706039
  H      -3.151692     -2.692718      0.959924
  H      -4.142074     -1.500319      0.103548
  H      -3.357512     -1.072641      1.629972
  N      -1.712235     -1.863965     -1.212774
  O      -2.309975     -2.920863     -1.446693
  O      -0.784627     -1.477453     -1.957543
  N       1.530117     -0.472802     -0.456579
  C       2.769701     -1.239384     -0.761610
  C       3.780319     -1.014037      0.348246
  O       4.054585      0.373606      0.521788
  C       2.872095      1.090546      0.868685
  C       1.817629      0.967681     -0.214842
  H       0.892284      1.453595      0.087742
  H       2.167962      1.406181     -1.149313
  H       3.154323      2.134649      0.992154
  H       2.477645      0.715513      1.821203
  H       4.721777     -1.497778      0.093403
  H       3.407525     -1.438884      1.288554
  H       3.159688     -0.892373     -1.718413
  H      -0.954171     -1.464928      0.726672
  H       0.852541     -0.580420     -1.218751
  H       2.504738     -2.292968     -0.839290
  H       0.315394     -2.573712      1.419972
  H       1.020784     -0.928956      0.402952
  O       0.138040     -1.624503      1.438142
38
Coordinates from ORCA-job /home/rudenko/2025/kie/for_orca/mcl-morpholine/orca/ts_opt/ts_opt E -1339.097304310218
  C      -1.608626      2.477156      1.007233
  C      -1.675346      1.090462      1.039132
  C      -1.893978      0.353134     -0.129162
  C      -2.050531      1.044440     -1.332695
  C      -1.970022      2.428306     -1.345496
  C      -1.749905      3.166808     -0.191667
  H      -1.430887      3.028786      1.921502
  H      -1.542062      0.571144      1.978458
  H      -2.222328      0.515372     -2.257796
  Cl     -2.156080      3.269540     -2.875463
  H      -1.688866      4.245412     -0.229830
  C      -1.998988     -1.138513     -0.012147
  C      -3.238920     -1.637329      0.705849
  H      -3.150515     -2.692507      0.960041
  H      -4.141660     -1.500987      0.103371
  H      -3.357271     -1.072361      1.629621
  N      -1.711450     -1.863333     -1.212602
  O      -2.307913     -2.921227     -1.445973
  O      -0.784344     -1.476161     -1.957963
  N       1.530188     -0.473948     -0.456874
  C       2.770057     -1.240347     -0.761282
  C       3.780592     -1.013881      0.348414
  O       4.054348      0.373973      0.521013
  C       2.871612      1.090685      0.867519
  C       1.817135      0.966799     -0.215880
  H       0.891599      1.452424      0.086557
  H       2.167168      1.404925     -1.150628
  H       3.153450      2.134969      0.990343
  H       2.477333      0.716087      1.820280
  H       4.722219     -1.497449      0.093866
  H       3.407980     -1.438246      1.289014
  H       3.159893     -0.893871     -1.718333
  H      -0.952559     -1.464974      0.727693
  H       0.852658     -0.582189     -1.219081
  H       2.505427     -2.294068     -0.838225
  H       0.312916     -2.574501      1.420280
  H       1.020971     -0.929462      0.402519
  O       0.136701     -1.625069      1.438390
38
Coordinates from ORCA-job /home/rudenko/2025/kie/for_orca/mcl-morpholine/orca/ts_opt/ts_opt E -1339.097319803416
  C      -1.609812      2.477591      1.008233
  C      -1.676098      1.090858      1.039602
  C      -1.893739      0.353794     -0.129081
  C      -2.049614      1.045543     -1.332490
  C      -1.969611      2.429428     -1.344731
  C      -1.750585      3.167641     -0.190498
  H      -1.432897      3.028954      1.922825
  H      -1.543368      0.571298      1.978878
  H      -2.220536      0.516732     -2.257889
  Cl     -2.154967      3.271143     -2.874541
  H      -1.690107      4.246301     -0.228228
  C      -1.998848     -1.137763     -0.012753
  C      -3.238296     -1.637220      0.705571
  H      -3.149159     -2.692257      0.960106
  H      -4.141200     -1.501771      0.103097
  H      -3.357054     -1.072047      1.629164
  N      -1.710489     -1.862509     -1.212383
  O      -2.305315     -2.921667     -1.445096
  O      -0.783998     -1.474486     -1.958457
  N       1.530308     -0.475420     -0.457290
  C       2.770560     -1.241591     -0.760815
  C       3.780942     -1.013631      0.348708
  O       4.054023      0.374503      0.520046
  C       2.870953      1.090930      0.865967
  C       1.816515      0.965677     -0.217311
  H       0.890720      1.450947      0.084865
  H       2.166208      1.403280     -1.152418
  H       3.152280      2.135451      0.987933
  H       2.476851      0.716927      1.819037
  H       4.722799     -1.496979      0.094600
  H       3.408527     -1.437338      1.289684
  H       3.160240     -0.895845     -1.718183
  H      -0.950541     -1.465077      0.729015
  H       0.852863     -0.584508     -1.219555
  H       2.506364     -2.295490     -0.836771
  H       0.309862     -2.575500      1.420563
  H       1.021206     -0.930097      0.401941
  O       0.135014     -1.625803      1.438655
38
Coordinates from ORCA-job /home/rudenko/2025/kie/for_orca/mcl-morpholine/orca/ts_opt/ts_opt E -1339.097344627942
  C      -1.611215      2.478111      1.009513
  C      -1.676985      1.091328      1.040210
  C      -1.893417      0.354608     -0.128960
  C      -2.048452      1.046924     -1.332206
  C      -1.969057      2.430831     -1.343740
  C      -1.751360      3.168669     -0.189001
  H      -1.435304      3.029130      1.924507
  H      -1.544947      0.571457      1.979416
  H      -2.218306      0.518442     -2.257976
  Cl     -2.153547      3.273161     -2.873343
  H      -1.691561      4.247397     -0.226183
  C      -1.998691     -1.136832     -0.013510
  C      -3.237560     -1.637066      0.705190
  H      -3.147547     -2.691932      0.960140
  H      -4.140651     -1.502697      0.102700
  H      -3.356834     -1.071645      1.628565
  N      -1.709267     -1.861487     -1.212085
  O      -2.302031     -2.922230     -1.443988
  O      -0.783533     -1.472398     -1.959042
  N       1.530439     -0.477280     -0.457817
  C       2.771188     -1.243154     -0.760197
  C       3.781364     -1.013266      0.349105
  O       4.053571      0.375227      0.518822
  C       2.870065      1.091285      0.863976
  C       1.815691      0.964266     -0.219157
  H       0.889560      1.449086      0.082664
  H       2.164964      1.401188     -1.154723
  H       3.150731      2.136110      0.984838
  H       2.476181      0.718049      1.817438
  H       4.723523     -1.496325      0.095573
  H       3.409197     -1.436126      1.290564
  H       3.160674     -0.898349     -1.717971
  H      -0.947977     -1.465268      0.730735
  H       0.853108     -0.587468     -1.220154
  H       2.507554     -2.297282     -0.834882
  H       0.306074     -2.576794      1.420800
  H       1.021477     -0.930895      0.401217
  O       0.132884     -1.626779      1.438959
38
Coordinates from ORCA-job /home/rudenko/2025/kie/for_orca/mcl-morpholine/orca/ts_opt/ts_opt E -1339.097384945678
  C      -1.612934      2.478744      1.011184
  C      -1.678086      1.091902      1.041017
  C      -1.893006      0.355637     -0.128777
  C      -2.046967      1.048688     -1.331806
  C      -1.968302      2.432618     -1.342431
  C      -1.752265      3.169962     -0.187047
  H      -1.438275      3.029314      1.926691
  H      -1.546931      0.571619      1.980126
  H      -2.215479      0.520636     -2.258051
  Cl     -2.151671      3.275750     -2.871763
  H      -1.693291      4.248772     -0.223524
  C      -1.998519     -1.135655     -0.014465
  C      -3.236679     -1.636858      0.704672
  H      -3.145593     -2.691515      0.960124
  H      -4.139987     -1.503820      0.102142
  H      -3.356618     -1.071142      1.627780
  N      -1.707710     -1.860179     -1.211694
  O      -2.297835     -2.922937     -1.442587
  O      -0.782923     -1.469730     -1.959753
  N       1.530598     -0.479681     -0.458498
  C       2.772002     -1.245158     -0.759365
  C       3.781896     -1.012739      0.349652
  O       4.052952      0.376224      0.517240
  C       2.868868      1.091796      0.861367
  C       1.814597      0.962453     -0.221586
  H       0.888025      1.446696      0.079744
  H       2.163344      1.398469     -1.157751
  H       3.148666      2.137019      0.980782
  H       2.475255      0.719574      1.815340
  H       4.724454     -1.495415      0.096887
  H       3.410045     -1.434482      1.291741
  H       3.161245     -0.901595     -1.717668
  H      -0.944703     -1.465567      0.732978
  H       0.853421     -0.591321     -1.220927
  H       2.509107     -2.299586     -0.832378
  H       0.301313     -2.578484      1.420984
  H       1.021802     -0.931927      0.400302
  O       0.130183     -1.628079      1.439319
38
Coordinates from ORCA-job /home/rudenko/2025/kie/for_orca/mcl-morpholine/orca/ts_opt/ts_opt E -1339.099042731901
  C      -1.656036      2.484328      1.034954
  C      -1.713207      1.096862      1.051189
  C      -1.893933      0.366696     -0.129697
  C      -2.018835      1.071964     -1.330742
  C      -1.950195      2.455879     -1.326633
  C      -1.770477      3.185618     -0.159974
  H      -1.509792      3.027947      1.959604
  H      -1.606269      0.570762      1.990229
  H      -2.158751      0.550585     -2.265107
  Cl     -2.101360      3.311881     -2.853037
  H      -1.722676      4.265345     -0.185491
  C      -2.006089     -1.120075     -0.034984
  C      -3.230572     -1.640787      0.690541
  H      -3.118804     -2.691223      0.955624
  H      -4.136930     -1.534405      0.085629
  H      -3.366333     -1.070288      1.608515
  N      -1.686827     -1.842757     -1.199009
  O      -2.232031     -2.940509     -1.413538
  O      -0.772359     -1.435689     -1.966746
  N       1.532747     -0.503143     -0.457196
  C       2.774948     -1.271157     -0.751825
  C       3.794565     -1.010981      0.341838
  O       4.060128      0.382270      0.477999
  C       2.876850      1.098744      0.822235
  C       1.810768      0.945283     -0.245858
  H       0.883941      1.426942      0.059268
  H       2.143819      1.366003     -1.194199
  H       3.152642      2.147313      0.919149
  H       2.495524      0.742486      1.787283
  H       4.736615     -1.494360      0.088684
  H       3.434936     -1.415379      1.296301
  H       3.151307     -0.945914     -1.721233
  H      -0.911943     -1.464570      0.769224
  H       0.846701     -0.631478     -1.213202
  H       2.514558     -2.327551     -0.799957
  H       0.228978     -2.591220      1.450220
  H       1.037101     -0.930045      0.396476
  O       0.087290     -1.635377      1.463469
38
Coordinates from ORCA-job /home/rudenko/2025/kie/for_orca/mcl-morpholine/orca/ts_opt/ts_opt E -1339.102198815425
  C      -1.713016      2.487345      1.041545
  C      -1.755677      1.099555      1.048918
  C      -1.901690      0.371279     -0.139378
  C      -2.004187      1.084402     -1.339788
  C      -1.951918      2.468259     -1.325642
  C      -1.809066      3.194194     -0.151443
  H      -1.595868      3.027371      1.972426
  H      -1.668573      0.570962      1.988620
  H      -2.117154      0.566101     -2.279128
  Cl     -2.079202      3.332367     -2.850234
  H      -1.777662      4.274518     -0.169734
  C      -2.017567     -1.111159     -0.058020
  C      -3.224877     -1.652504      0.678069
  H      -3.089481     -2.697225      0.954039
  H      -4.134144     -1.576112      0.071995
  H      -3.377166     -1.076705      1.590109
  N      -1.675619     -1.835731     -1.186812
  O      -2.182796     -2.963531     -1.383074
  O      -0.771027     -1.422607     -1.980561
  N       1.538998     -0.495918     -0.444560
  C       2.765710     -1.283531     -0.754985
  C       3.807460     -1.031177      0.319323
  O       4.093067      0.359092      0.443683
  C       2.926491      1.092689      0.807570
  C       1.838284      0.950650     -0.239544
  H       0.921776      1.442285      0.082354
  H       2.156121      1.363382     -1.196148
  H       3.217824      2.137822      0.895528
  H       2.558512      0.744825      1.780879
  H       4.738234     -1.528262      0.051568
  H       3.459864     -1.426348      1.282154
  H       3.127144     -0.967406     -1.732720
  H      -0.888525     -1.455332      0.808615
  H       0.835321     -0.618774     -1.190557
  H       2.488964     -2.336057     -0.793340
  H       0.162101     -2.572756      1.504930
  H       1.056964     -0.902249      0.402059
  O       0.042381     -1.613714      1.491285
38
Coordinates from ORCA-job /home/rudenko/2025/kie/for_orca/mcl-morpholine/orca/ts_opt/ts_opt E -1339.105535071422
  C      -1.772019      2.480902      1.034146
  C      -1.797701      1.093411      1.037253
  C      -1.913356      0.364824     -0.155165
  C      -2.000865      1.080603     -1.356444
  C      -1.966780      2.464363     -1.337043
  C      -1.856658      3.188818     -0.158518
  H      -1.681020      3.020268      1.968329
  H      -1.724944      0.564460      1.977795
  H      -2.092186      0.562160     -2.297890
  Cl     -2.079097      3.332626     -2.860770
  H      -1.843340      4.268989     -0.172773
  C      -2.033011     -1.114192     -0.078291
  C      -3.223878     -1.674177      0.668811
  H      -3.066849     -2.713697      0.952004
  H      -4.135136     -1.622771      0.062850
  H      -3.389657     -1.095619      1.576863
  N      -1.681395     -1.842859     -1.184865
  O      -2.169026     -2.988634     -1.369117
  O      -0.783655     -1.432274     -2.001897
  N       1.548428     -0.453933     -0.428537
  C       2.742921     -1.277655     -0.769662
  C       3.811436     -1.070071      0.287691
  O       4.143194      0.309136      0.421061
  C       3.008687      1.076141      0.815761
  C       1.896380      0.981496     -0.211157
  H       0.999954      1.497024      0.133604
  H       2.206861      1.394014     -1.170066
  H       3.335637      2.110235      0.909116
  H       2.648521      0.729405      1.792423
  H       4.720622     -1.593754     -0.002532
  H       3.469002     -1.464222      1.252820
  H       3.094833     -0.961268     -1.750671
  H      -0.869476     -1.440734      0.853559
  H       0.825506     -0.548155     -1.164622
  H       2.430877     -2.319925     -0.814707
  H       0.121325     -2.505719      1.606063
  H       1.071771     -0.848959      0.416125
  O       0.004095     -1.550257      1.518454
38
Coordinates from ORCA-job /home/rudenko/2025/kie/for_orca/mcl-morpholine/orca/ts_opt/ts_opt E -1339.108209450980
  C      -1.846902      2.471384      1.037647
  C      -1.856666      1.084099      1.034245
  C      -1.930789      0.358920     -0.164271
  C      -1.992476      1.079011     -1.365180
  C      -1.974812      2.462685     -1.338510
  C      -1.906978      3.182687     -0.154256
  H      -1.789676      3.008167      1.976012
  H      -1.804858      0.552119      1.974040
  H      -2.052446      0.562340     -2.309987
  Cl     -2.054948      3.337939     -2.860529
  H      -1.907675      4.262975     -0.163059
  C      -2.047655     -1.118600     -0.096119
  C      -3.223497     -1.701949      0.655750
  H      -3.044988     -2.738271      0.937194
  H      -4.135440     -1.669445      0.049509
  H      -3.402432     -1.128089      1.564542
  N      -1.682026     -1.843039     -1.194173
  O      -2.160448     -2.996156     -1.387829
  O      -0.779371     -1.426855     -2.010967
  N       1.557218     -0.417044     -0.417985
  C       2.717442     -1.279266     -0.781005
  C       3.807751     -1.111463      0.260800
  O       4.187646      0.255419      0.392829
  C       3.086705      1.060020      0.806621
  C       1.956477      1.006329     -0.203382
  H       1.082289      1.551185      0.154201
  H       2.265463      1.408812     -1.167027
  H       3.450738      2.081933      0.896826
  H       2.729973      0.723429      1.788072
  H       4.694234     -1.664794     -0.044132
  H       3.466211     -1.496411      1.229963
  H       3.064317     -0.969588     -1.765988
  H      -0.846321     -1.421394      0.903907
  H       0.820121     -0.488805     -1.142932
  H       2.369570     -2.310066     -0.826050
  H       0.108870     -2.405499      1.742733
  H       1.084397     -0.797552      0.434745
  O      -0.009019     -1.465167      1.553744
38
Coordinates from ORCA-job /home/rudenko/2025/kie/for_orca/mcl-morpholine/orca/ts_opt/ts_opt E -1339.109676707560
  C      -1.930992      2.466954      1.036572
  C      -1.923774      1.079687      1.031449
  C      -1.948656      0.355174     -0.169906
  C      -1.977772      1.076487     -1.371519
  C      -1.978190      2.460289     -1.342583
  C      -1.959951      3.179208     -0.156077
  H      -1.913000      3.003354      1.976738
  H      -1.896266      0.547093      1.971499
  H      -1.999929      0.559874     -2.317840
  Cl     -2.018014      3.337366     -2.865355
  H      -1.974359      4.259721     -0.163436
  C      -2.056921     -1.122720     -0.108364
  C      -3.221927     -1.725594      0.643399
  H      -3.026315     -2.760133      0.920322
  H      -4.133897     -1.706112      0.036615
  H      -3.410993     -1.158062      1.554065
  N      -1.670598     -1.843846     -1.201828
  O      -2.146251     -2.996625     -1.411053
  O      -0.756028     -1.419642     -2.001877
  N       1.559595     -0.381023     -0.404929
  C       2.683966     -1.276933     -0.797880
  C       3.797037     -1.154695      0.225922
  O       4.224048      0.197805      0.362191
  C       3.157873      1.035364      0.800608
  C       2.009718      1.026715     -0.190238
  H       1.160169      1.598068      0.183869
  H       2.316000      1.424077     -1.157010
  H       3.557584      2.043804      0.891503
  H       2.806826      0.703411      1.785678
  H       4.659490     -1.734281     -0.098413
  H       3.459284     -1.536083      1.197817
  H       3.023795     -0.968127     -1.785702
  H      -0.822753     -1.405383      0.950375
  H       0.807782     -0.427703     -1.115292
  H       2.301855     -2.295288     -0.847136
  H       0.137325     -2.300064      1.884444
  H       1.095295     -0.754562      0.459166
  O       0.008942     -1.387574      1.594206
38
Coordinates from ORCA-job /home/rudenko/2025/kie/for_orca/mcl-morpholine/orca/ts_opt/ts_opt E -1339.108957455487
  C      -1.981225      2.470152      1.018442
  C      -1.949761      1.083445      1.022463
  C      -1.957033      0.351222     -0.174234
  C      -1.994983      1.063879     -1.380499
  C      -2.018017      2.447882     -1.360699
  C      -2.016612      3.174424     -0.178898
  H      -1.976797      3.012865      1.955153
  H      -1.916722      0.557371      1.965819
  H      -2.008617      0.541226     -2.323651
  Cl     -2.068293      3.314068     -2.889357
  H      -2.048412      4.254213     -0.192926
  C      -2.048282     -1.127674     -0.101966
  C      -3.212193     -1.738704      0.643955
  H      -3.013442     -2.775658      0.909964
  H      -4.125499     -1.714703      0.039260
  H      -3.400092     -1.180525      1.560356
  N      -1.662546     -1.850555     -1.203438
  O      -2.154176     -2.991812     -1.420151
  O      -0.741578     -1.431280     -1.991656
  N       1.566618     -0.335302     -0.401496
  C       2.658211     -1.258946     -0.820009
  C       3.774829     -1.201764      0.205663
  O       4.250394      0.131098      0.373962
  C       3.214450      0.996720      0.830695
  C       2.067251      1.049937     -0.160020
  H       1.239682      1.646122      0.224740
  H       2.390295      1.455608     -1.118057
  H       3.650283      1.987877      0.943332
  H       2.851202      0.656246      1.808405
  H       4.616322     -1.804026     -0.132125
  H       3.422860     -1.593475      1.168357
  H       3.009782     -0.937372     -1.799800
  H      -0.799991     -1.393517      0.970644
  H       0.813540     -0.343123     -1.109528
  H       2.240995     -2.261793     -0.895144
  H       0.188870     -2.209320      1.957665
  H       1.094389     -0.717432      0.462691
  O       0.044297     -1.327372      1.592092
38
Coordinates from ORCA-job /home/rudenko/2025/kie/for_orca/mcl-morpholine/orca/ts_opt/ts_opt E -1339.107656882799
  C      -1.905927      2.468606      1.023050
  C      -1.896315      1.081370      1.023506
  C      -1.950622      0.353050     -0.173762
  C      -2.016000      1.068058     -1.376906
  C      -2.016981      2.452322     -1.354128
  C      -1.966734      3.175860     -0.171423
  H      -1.863480      3.008862      1.960184
  H      -1.842908      0.552221      1.964406
  H      -2.065826      0.548029     -2.320388
  Cl     -2.100190      3.322307     -2.878848
  H      -1.980659      4.256013     -0.182719
  C      -2.053034     -1.126922     -0.099829
  C      -3.225151     -1.721121      0.648256
  H      -3.037013     -2.757171      0.925225
  H      -4.136501     -1.693444      0.041354
  H      -3.408613     -1.151861      1.558669
  N      -1.683475     -1.852734     -1.209257
  O      -2.180369     -2.991674     -1.417513
  O      -0.770424     -1.437235     -2.006655
  N       1.568028     -0.367847     -0.406754
  C       2.690658     -1.265588     -0.798429
  C       3.793856     -1.161664      0.238106
  O       4.228502      0.186427      0.393293
  C       3.162939      1.026710      0.828428
  C       2.025063      1.034314     -0.174327
  H       1.176078      1.608937      0.196244
  H       2.345285      1.439951     -1.133325
  H       3.568285      2.031605      0.933025
  H       2.799513      0.687891      1.806643
  H       4.656078     -1.743446     -0.083019
  H       3.443229     -1.550981      1.202251
  H       3.043669     -0.949207     -1.779386
  H      -0.827071     -1.406994      0.926523
  H       0.824475     -0.401977     -1.124887
  H       2.303363     -2.281229     -0.862244
  H       0.176502     -2.300632      1.854993
  H       1.090547     -0.752924      0.455076
  O       0.031225     -1.387881      1.574565
38
Coordinates from ORCA-job /home/rudenko/2025/kie/for_orca/mcl-morpholine/orca/ts_opt/ts_opt E -1339.107302994971
  C      -1.972896      2.466056      1.018719
  C      -1.946598      1.079288      1.024015
  C      -1.962107      0.346239     -0.171808
  C      -2.004825      1.057236     -1.378566
  C      -2.021970      2.441520     -1.360269
  C      -2.010601      3.169198     -0.179219
  H      -1.961138      3.009655      1.954853
  H      -1.910175      0.553847      1.967737
  H      -2.024779      0.534306     -2.321561
  Cl     -2.075345      3.305922     -2.889641
  H      -2.035958      4.248874     -0.194204
  C      -2.051087     -1.133507     -0.094938
  C      -3.224046     -1.737287      0.643923
  H      -3.034580     -2.776432      0.907767
  H      -4.135602     -1.703408      0.037257
  H      -3.409131     -1.179925      1.561540
  N      -1.669888     -1.855846     -1.205248
  O      -2.160932     -2.995093     -1.420611
  O      -0.752676     -1.433670     -1.991083
  N       1.570791     -0.329062     -0.406516
  C       2.662751     -1.254439     -0.820370
  C       3.774433     -1.200172      0.210944
  O       4.252117      0.131653      0.382173
  C       3.215483      0.998765      0.834875
  C       2.072963      1.054708     -0.161255
  H       1.245487      1.653719      0.220036
  H       2.402383      1.461185     -1.116840
  H       3.652667      1.988986      0.950423
  H       2.847170      0.658090      1.810603
  H       4.616470     -1.803964     -0.122757
  H       3.416777     -1.591573      1.171628
  H       3.020536     -0.933641     -1.798204
  H      -0.814607     -1.398280      0.958672
  H       0.822949     -0.334644     -1.118347
  H       2.244063     -2.256482     -0.897902
  H       0.212415     -2.203536      1.951613
  H       1.090617     -0.714843      0.457362
  O       0.058867     -1.323445      1.585198
38
Coordinates from ORCA-job /home/rudenko/2025/kie/for_orca/mcl-morpholine/orca/ts_opt/ts_opt E -1339.104283190365
  C      -1.872024      2.468511      0.987723
  C      -1.859120      1.081601      1.006596
  C      -1.952714      0.338665     -0.178498
  C      -2.062395      1.035534     -1.387978
  C      -2.063016      2.420248     -1.384551
  C      -1.973043      3.159073     -0.213803
  H      -1.798607      3.021659      1.915410
  H      -1.772306      0.564329      1.951713
  H      -2.146133      0.503220     -2.322671
  Cl     -2.199061      3.268817     -2.917236
  H      -1.986088      4.238363     -0.239056
  C      -2.047693     -1.141425     -0.079245
  C      -3.229146     -1.719586      0.668664
  H      -3.056141     -2.759386      0.941325
  H      -4.143659     -1.673274      0.067726
  H      -3.396295     -1.150352      1.582537
  N      -1.714810     -1.867302     -1.213143
  O      -2.237213     -2.989911     -1.417831
  O      -0.813692     -1.458797     -2.016483
  N       1.577201     -0.322464     -0.406699
  C       2.687840     -1.226437     -0.816222
  C       3.779180     -1.178564      0.237073
  O       4.237221      0.155119      0.443291
  C       3.181374      1.000877      0.892181
  C       2.057310      1.062102     -0.124417
  H       1.215258      1.643793      0.253142
  H       2.399962      1.492684     -1.064764
  H       3.604046      1.993888      1.034776
  H       2.798830      0.637347      1.854098
  H       4.634753     -1.765642     -0.092079
  H       3.408306     -1.592961      1.182980
  H       3.060769     -0.884617     -1.781274
  H      -0.832037     -1.411941      0.895270
  H       0.844732     -0.318604     -1.132631
  H       2.283664     -2.232266     -0.919202
  H       0.237902     -2.283353      1.817441
  H       1.080710     -0.732822      0.441437
  O       0.066134     -1.376127      1.534404
38
Coordinates from ORCA-job /home/rudenko/2025/kie/for_orca/mcl-morpholine/orca/ts_opt/ts_opt E -1339.104846443961
  C      -1.951341      2.463036      1.001513
  C      -1.922580      1.076678      1.017150
  C      -1.957853      0.335007     -0.172438
  C      -2.025040      1.035183     -1.383734
  C      -2.042362      2.419832     -1.376227
  C      -2.010218      3.156356     -0.201236
  H      -1.924039      3.014029      1.932987
  H      -1.869403      0.558375      1.963996
  H      -2.064860      0.505373     -2.322515
  Cl     -2.125378      3.271879     -2.910879
  H      -2.035536      4.235309     -0.223979
  C      -2.045869     -1.144441     -0.077974
  C      -3.226441     -1.734851      0.660760
  H      -3.050163     -2.777393      0.920057
  H      -4.140331     -1.684729      0.058791
  H      -3.398607     -1.178470      1.581467
  N      -1.696317     -1.870422     -1.205266
  O      -2.211216     -2.996507     -1.413118
  O      -0.789935     -1.460459     -2.002733
  N       1.579048     -0.298642     -0.414898
  C       2.665695     -1.227954     -0.832315
  C       3.762851     -1.207817      0.215744
  O       4.254343      0.114474      0.419981
  C       3.221579      0.985879      0.874056
  C       2.094152      1.073705     -0.137025
  H       1.269456      1.678529      0.243066
  H       2.443777      1.494064     -1.079491
  H       3.669160      1.968283      1.014123
  H       2.835440      0.631868      1.838057
  H       4.602478     -1.815482     -0.117087
  H       3.386188     -1.613031      1.163317
  H       3.042335     -0.892838     -1.798320
  H      -0.821185     -1.403983      0.936494
  H       0.842255     -0.281781     -1.136230
  H       2.236865     -2.223389     -0.935777
  H       0.243770     -2.191247      1.916333
  H       1.081091     -0.699796      0.436524
  O       0.078192     -1.314627      1.546827
38
Coordinates from ORCA-job /home/rudenko/2025/kie/for_orca/mcl-morpholine/orca/ts_opt/ts_opt E -1339.099559095476
  C      -1.902190      2.457724      0.942103
  C      -1.872731      1.072279      0.987022
  C      -1.959051      0.305662     -0.183392
  C      -2.081554      0.977425     -1.405358
  C      -2.096670      2.362304     -1.428352
  C      -2.011842      3.123746     -0.272321
  H      -1.834091      3.029411      1.858948
  H      -1.777173      0.573862      1.941245
  H      -2.164966      0.428444     -2.330278
  Cl     -2.245805      3.179777     -2.976539
  H      -2.034974      4.201387     -0.317537
  C      -2.038271     -1.173887     -0.045870
  C      -3.234279     -1.733157      0.696239
  H      -3.081153     -2.777834      0.960931
  H      -4.150115     -1.662225      0.099533
  H      -3.386268     -1.167972      1.615542
  N      -1.738449     -1.913820     -1.196304
  O      -2.292946     -3.017514     -1.388777
  O      -0.844124     -1.528003     -2.005340
  N       1.590989     -0.206296     -0.411753
  C       2.650185     -1.146616     -0.872067
  C       3.729353     -1.232607      0.191506
  O       4.264918      0.055463      0.485508
  C       3.255891      0.934402      0.977856
  C       2.150288      1.126023     -0.043221
  H       1.342858      1.740163      0.360853
  H       2.533569      1.590997     -0.951201
  H       3.736059      1.888902      1.186219
  H       2.840674      0.535308      1.911665
  H       4.552292     -1.849185     -0.165629
  H       3.321766     -1.681242      1.106051
  H       3.056801     -0.767658     -1.809424
  H      -0.840103     -1.409380      0.898701
  H       0.871949     -0.116612     -1.139372
  H       2.188355     -2.117616     -1.043692
  H       0.322426     -2.147638      1.868662
  H       1.061335     -0.648363      0.412938
  O       0.117046     -1.285655      1.484906
38
Coordinates from ORCA-job /home/rudenko/2025/kie/for_orca/mcl-morpholine/orca/ts_opt/ts_opt E -1339.098104285698
  C      -1.820439      2.461782      0.916472
  C      -1.804597      1.076229      0.971921
  C      -1.951802      0.303381     -0.187286
  C      -2.125810      0.965190     -1.407354
  C      -2.126342      2.349908     -1.442281
  C      -1.978061      3.118777     -0.297424
  H      -1.703049      3.040157      1.824091
  H      -1.670305      0.582808      1.924334
  H      -2.257624      0.409623     -2.323020
  Cl     -2.337906      3.155918     -2.989084
  H      -1.988914      4.196093     -0.350900
  C      -2.030803     -1.177833     -0.036379
  C      -3.234434     -1.718812      0.708954
  H      -3.091230     -2.761666      0.986892
  H      -4.149211     -1.644868      0.111500
  H      -3.378691     -1.140642      1.621604
  N      -1.756722     -1.917512     -1.201354
  O      -2.328539     -3.009706     -1.391934
  O      -0.866933     -1.535973     -2.011259
  N       1.586738     -0.210634     -0.404542
  C       2.662775     -1.130809     -0.865672
  C       3.733693     -1.213058      0.206704
  O       4.248322      0.078817      0.520337
  C       3.222436      0.937479      1.013502
  C       2.123127      1.125330     -0.015064
  H       1.301879      1.720875      0.389724
  H       2.506891      1.608179     -0.913460
  H       3.686835      1.896343      1.237000
  H       2.804683      0.521900      1.938959
  H       4.568278     -1.813786     -0.150420
  H       3.324626     -1.678182      1.112296
  H       3.072391     -0.736977     -1.795578
  H      -0.851837     -1.414930      0.847402
  H       0.875227     -0.117446     -1.136929
  H       2.216786     -2.106799     -1.050746
  H       0.345762     -2.219137      1.763288
  H       1.053295     -0.669776      0.414077
  O       0.119505     -1.330244      1.461630
38
Coordinates from ORCA-job /home/rudenko/2025/kie/for_orca/mcl-morpholine/orca/ts_opt/ts_opt E -1339.096489789754
  C      -1.713394      2.470579      0.849689
  C      -1.714237      1.085613      0.934385
  C      -1.945630      0.292721     -0.196348
  C      -2.190196      0.931281     -1.415850
  C      -2.172703      2.315107     -1.481980
  C      -1.938254      3.104956     -0.365843
  H      -1.528129      3.065718      1.734883
  H      -1.523093      0.608335      1.885501
  H      -2.386256      0.359486     -2.310124
  Cl     -2.470237      3.090658     -3.030271
  H      -1.933483      4.181752     -0.442853
  C      -2.017741     -1.190529     -0.014187
  C      -3.239645     -1.695067      0.730796
  H      -3.121030     -2.736495      1.025918
  H      -4.150361     -1.607548      0.129651
  H      -3.371013     -1.099804      1.634672
  N      -1.763608     -1.935714     -1.191827
  O      -2.361672     -3.009383     -1.386832
  O      -0.864367     -1.565353     -1.987318
  N       1.570969     -0.184347     -0.378178
  C       2.654341     -1.075124     -0.878765
  C       3.725823     -1.196089      0.189729
  O       4.230247      0.084409      0.561033
  C       3.196871      0.911232      1.091276
  C       2.097051      1.136426      0.070687
  H       1.270764      1.703890      0.501491
  H       2.477773      1.664147     -0.803466
  H       3.652926      1.862897      1.358379
  H       2.781794      0.450971      1.996521
  H       4.565141     -1.773478     -0.193758
  H       3.320553     -1.704748      1.073246
  H       3.061806     -0.639338     -1.790770
  H      -0.857431     -1.430368      0.806489
  H       0.863781     -0.057956     -1.106292
  H       2.216325     -2.046009     -1.105226
  H       0.397798     -2.297806      1.640274
  H       1.036600     -0.685888      0.427275
  O       0.141917     -1.389128      1.437992
38
Coordinates from ORCA-job /home/rudenko/2025/kie/for_orca/mcl-morpholine/orca/ts_opt/ts_opt E -1339.096028609108
  C      -1.668690      2.471795      0.857487
  C      -1.683008      1.086112      0.936649
  C      -1.950762      0.302403     -0.191234
  C      -2.221909      0.947503     -1.401010
  C      -2.193417      2.331480     -1.461911
  C      -1.918968      3.113416     -0.349035
  H      -1.452633      3.061085      1.739546
  H      -1.471490      0.601211      1.879726
  H      -2.446250      0.381213     -2.292642
  Cl     -2.525525      3.117373     -2.997416
  H      -1.901487      4.190332     -0.422714
  C      -2.022547     -1.184848     -0.017360
  C      -3.249908     -1.686702      0.719704
  H      -3.135524     -2.728168      1.017989
  H      -4.155712     -1.597794      0.112180
  H      -3.384536     -1.088889      1.621311
  N      -1.761566     -1.925717     -1.202137
  O      -2.360837     -2.994847     -1.406868
  O      -0.853987     -1.552625     -1.983621
  N       1.574665     -0.224029     -0.384946
  C       2.681533     -1.101193     -0.856117
  C       3.744084     -1.176176      0.225676
  O       4.218334      0.122248      0.574135
  C       3.162846      0.939130      1.075221
  C       2.068569      1.117685      0.039735
  H       1.225323      1.675263      0.450066
  H       2.446493      1.634514     -0.842189
  H       3.596357      1.906153      1.324237
  H       2.748616      0.491710      1.987225
  H       4.599017     -1.744345     -0.136681
  H       3.339815     -1.673786      1.115917
  H       3.089161     -0.676587     -1.773376
  H      -0.878011     -1.426099      0.774506
  H       0.871591     -0.124577     -1.122282
  H       2.267014     -2.086174     -1.065577
  H       0.415377     -2.346651      1.579339
  H       1.042404     -0.722091      0.431364
  O       0.145565     -1.429329      1.445101
38
Coordinates from ORCA-job /home/rudenko/2025/kie/for_orca/mcl-morpholine/orca/ts_opt/ts_opt E -1339.096233538001
  C      -1.628776      2.492608      0.859367
  C      -1.645496      1.106394      0.944941
  C      -1.939988      0.320559     -0.173685
  C      -2.234803      0.960705     -1.379893
  C      -2.202743      2.344594     -1.448170
  C      -1.900909      3.130406     -0.344857
  H      -1.389721      3.084688      1.733535
  H      -1.412252      0.623517      1.884052
  H      -2.476734      0.390833     -2.265108
  Cl     -2.562985      3.125053     -2.979627
  H      -1.876166      4.207821     -0.425801
  C      -1.995415     -1.170846     -0.003466
  C      -3.231549     -1.673663      0.717664
  H      -3.124275     -2.717430      1.010798
  H      -4.130625     -1.576699      0.101956
  H      -3.371210     -1.080391      1.621422
  N      -1.712752     -1.898834     -1.196926
  O      -2.304084     -2.965274     -1.423593
  O      -0.794610     -1.507370     -1.952045
  N       1.553267     -0.273406     -0.389349
  C       2.686683     -1.126532     -0.841561
  C       3.743197     -1.159365      0.248335
  O       4.181290      0.155228      0.582372
  C       3.100921      0.951166      1.063756
  C       2.010294      1.086081      0.017940
  H       1.151187      1.626064      0.413828
  H       2.381817      1.599280     -0.868816
  H       3.506927      1.932864      1.301550
  H       2.691569      0.506605      1.979334
  H       4.615029     -1.709969     -0.100541
  H       3.345399     -1.655370      1.142369
  H       3.089558     -0.703625     -1.761701
  H      -0.883194     -1.419153      0.749975
  H       0.852392     -0.201206     -1.131169
  H       2.300390     -2.125177     -1.040114
  H       0.426075     -2.415383      1.477423
  H       1.030528     -0.774498      0.434456
  O       0.151765     -1.490274      1.441350
38
Coordinates from ORCA-job /home/rudenko/2025/kie/for_orca/mcl-morpholine/orca/ts_opt/ts_opt E -1339.096721764715
  C      -1.644925      2.496730      0.926919
  C      -1.667120      1.109151      0.987474
  C      -1.937609      0.345509     -0.151476
  C      -2.202950      1.006662     -1.353048
  C      -2.166437      2.391326     -1.395718
  C      -1.887016      3.156222     -0.271928
  H      -1.423898      3.072532      1.816513
  H      -1.456977      0.608815      1.923040
  H      -2.424827      0.452402     -2.253227
  Cl     -2.489216      3.200901     -2.919796
  H      -1.854802      4.234396     -0.334128
  C      -1.991751     -1.149345     -0.013678
  C      -3.226121     -1.679442      0.687155
  H      -3.107300     -2.725601      0.967472
  H      -4.118264     -1.587853      0.060984
  H      -3.385579     -1.099614      1.596052
  N      -1.672189     -1.862031     -1.207175
  O      -2.238415     -2.936899     -1.452320
  O      -0.743471     -1.451588     -1.941082
  N       1.545502     -0.356050     -0.407947
  C       2.707140     -1.199120     -0.802363
  C       3.757730     -1.132636      0.291533
  O       4.154230      0.212517      0.545010
  C       3.047798      1.005183      0.969701
  C       1.959725      1.039931     -0.086728
  H       1.082728      1.578933      0.269347
  H       2.321386      1.504838     -1.003766
  H       3.423329      2.011849      1.145357
  H       2.646157      0.608646      1.910414
  H       4.647757     -1.677217     -0.018884
  H       3.369404     -1.583998      1.213026
  H       3.101940     -0.820391     -1.745024
  H      -0.902075     -1.404800      0.745639
  H       0.842368     -0.356272     -1.153980
  H       2.353166     -2.219686     -0.941134
  H       0.405290     -2.450201      1.475355
  H       1.035739     -0.822183      0.443362
  O       0.139553     -1.521618      1.479049
38
Coordinates from ORCA-job /home/rudenko/2025/kie/for_orca/mcl-morpholine/orca/ts_opt/ts_opt E -1339.096710120552
  C      -1.624992      2.503132      0.973511
  C      -1.651098      1.114840      1.019865
  C      -1.905538      0.364604     -0.130894
  C      -2.144338      1.037890     -1.331057
  C      -2.103926      2.422874     -1.359483
  C      -1.845785      3.175854     -0.222361
  H      -1.418873      3.069145      1.872869
  H      -1.458369      0.604669      1.954005
  H      -2.351485      0.492888     -2.240270
  Cl     -2.397027      3.248065     -2.880969
  H      -1.814111      4.255160     -0.272621
  C      -1.965912     -1.132162     -0.012002
  C      -3.204778     -1.670768      0.672900
  H      -3.089895     -2.721717      0.935467
  H      -4.093008     -1.566403      0.043234
  H      -3.367814     -1.105503      1.590127
  N      -1.630092     -1.833457     -1.210701
  O      -2.185670     -2.908220     -1.468254
  O      -0.700771     -1.407834     -1.934176
  N       1.515498     -0.434295     -0.414441
  C       2.711384     -1.245674     -0.770820
  C       3.758914     -1.086812      0.316142
  O       4.098610      0.283544      0.508046
  C       2.959562      1.046577      0.898742
  C       1.872314      0.989049     -0.157345
  H       0.974145      1.507411      0.174231
  H       2.216630      1.425543     -1.094944
  H       3.292333      2.074760      1.030027
  H       2.573977      0.674402      1.856013
  H       4.670990     -1.606838      0.028235
  H       3.390549     -1.512673      1.257828
  H       3.090479     -0.893124     -1.729931
  H      -0.916627     -1.407866      0.734889
  H       0.810359     -0.502609     -1.157166
  H       2.400310     -2.285331     -0.863641
  H       0.382409     -2.509471      1.433715
  H       1.022372     -0.880210      0.453482
  O       0.129273     -1.579438      1.497749
38
Coordinates from ORCA-job /home/rudenko/2025/kie/for_orca/mcl-morpholine/orca/ts_opt/ts_opt E -1339.096842421165
  C      -1.630661      2.472197      1.021106
  C      -1.669374      1.084369      1.037628
  C      -1.897188      0.359409     -0.135009
  C      -2.091724      1.059089     -1.328417
  C      -2.038739      2.443723     -1.326263
  C      -1.811435      3.170936     -0.166021
  H      -1.448295      3.017680      1.938107
  H      -1.510975      0.554736      1.967250
  H      -2.278456      0.534985     -2.253599
  Cl     -2.278352      3.302280     -2.838616
  H      -1.777436      4.250109     -0.190585
  C      -1.994480     -1.134381     -0.036167
  C      -3.217291     -1.668892      0.679873
  H      -3.105007     -2.724314      0.923593
  H      -4.122853     -1.547736      0.078476
  H      -3.348179     -1.114936      1.608911
  N      -1.698876     -1.842352     -1.239843
  O      -2.264769     -2.918027     -1.471215
  O      -0.793376     -1.427779     -2.002985
  N       1.534543     -0.466782     -0.435369
  C       2.751903     -1.266721     -0.741806
  C       3.780675     -1.042845      0.351483
  O       4.087798      0.341521      0.493509
  C       2.927239      1.094194      0.838506
  C       1.857374      0.972847     -0.229628
  H       0.944133      1.487318      0.068331
  H       2.207017      1.378567     -1.179061
  H       3.236245      2.133519      0.935366
  H       2.535479      0.749646      1.803594
  H       4.707802     -1.553259      0.096119
  H       3.408932     -1.439829      1.304453
  H       3.137163     -0.943452     -1.708790
  H      -0.936957     -1.434908      0.717679
  H       0.839488     -0.582778     -1.184070
  H       2.463403     -2.315460     -0.798912
  H       0.350210     -2.514769      1.468391
  H       1.034927     -0.888452      0.437178
  O       0.110092     -1.579452      1.496804
38
Coordinates from ORCA-job /home/rudenko/2025/kie/for_orca/mcl-morpholine/orca/ts_opt/ts_opt E -1339.096896744493
  C      -1.587494      2.474000      1.009463
  C      -1.639872      1.085940      1.035215
  C      -1.873782      0.355105     -0.132871
  C      -2.062747      1.050167     -1.329703
  C      -1.996454      2.434728     -1.336680
  C      -1.760960      3.168142     -0.182149
  H      -1.397232      3.022977      1.922771
  H      -1.481449      0.561107      1.967427
  H      -2.249779      0.523447     -2.252985
  Cl     -2.221281      3.283390     -2.856639
  H      -1.716554      4.248260     -0.214280
  C      -1.971859     -1.140260     -0.022388
  C      -3.201234     -1.650236      0.704374
  H      -3.107226     -2.707735      0.944602
  H      -4.111186     -1.508203      0.114291
  H      -3.309075     -1.095741      1.635867
  N      -1.689591     -1.856669     -1.232914
  O      -2.269461     -2.922069     -1.460466
  O      -0.780868     -1.448844     -1.988920
  N       1.506739     -0.475033     -0.434630
  C       2.741351     -1.246119     -0.750242
  C       3.767493     -1.012831      0.343632
  O       4.044658      0.376103      0.501282
  C       2.867559      1.097237      0.857227
  C       1.799792      0.966920     -0.212134
  H       0.879297      1.458613      0.093948
  H       2.140940      1.392835     -1.155766
  H       3.152801      2.141787      0.968811
  H       2.484673      0.729944      1.817403
  H       4.705086     -1.499362      0.080182
  H       3.407258     -1.429486      1.292504
  H       3.118565     -0.905171     -1.714295
  H      -0.951162     -1.454329      0.689446
  H       0.815989     -0.594870     -1.185172
  H       2.474673     -2.299889     -0.818081
  H       0.347487     -2.569372      1.390201
  H       1.012399     -0.918134      0.434629
  O       0.112508     -1.636346      1.477039
38
Coordinates from ORCA-job /home/rudenko/2025/kie/for_orca/mcl-morpholine/orca/ts_opt/ts_opt E -1339.097017807635
  C      -1.606448      2.471911      1.023255
  C      -1.664650      1.084352      1.041715
  C      -1.894665      0.359554     -0.131340
  C      -2.074391      1.061488     -1.325516
  C      -2.001660      2.445662     -1.325093
  C      -1.768576      3.172563     -0.166125
  H      -1.417381      3.015333      1.940131
  H      -1.510792      0.554778      1.972000
  H      -2.254756      0.540166     -2.253219
  Cl     -2.212124      3.302378     -2.842735
  H      -1.714190      4.251747     -0.193474
  C      -1.983127     -1.135599     -0.028586
  C      -3.207895     -1.657621      0.697750
  H      -3.106155     -2.716040      0.931711
  H      -4.119776     -1.518364      0.110163
  H      -3.317820     -1.109551      1.632574
  N      -1.696692     -1.845978     -1.240284
  O      -2.278220     -2.909584     -1.476723
  O      -0.780543     -1.438057     -1.988404
  N       1.518430     -0.486870     -0.438003
  C       2.754448     -1.261574     -0.739363
  C       3.777924     -1.011548      0.353220
  O       4.053997      0.379675      0.491434
  C       2.875641      1.105009      0.834621
  C       1.810175      0.958827     -0.234963
  H       0.888793      1.454885      0.062972
  H       2.152753      1.371745     -1.183818
  H       3.159731      2.151326      0.932012
  H       2.490785      0.751181      1.799092
  H       4.716349     -1.501174      0.098566
  H       3.416120     -1.414767      1.307273
  H       3.133128     -0.935058     -1.707795
  H      -0.944496     -1.453126      0.693114
  H       0.831103     -0.615695     -1.189937
  H       2.488082     -2.316288     -0.791703
  H       0.344302     -2.561896      1.416884
  H       1.022577     -0.919207      0.434946
  O       0.120016     -1.624585      1.483652
38
Coordinates from ORCA-job /home/rudenko/2025/kie/for_orca/mcl-morpholine/orca/ts_opt/ts_opt E -1339.097053926966
  C      -1.631431      2.477519      1.009280
  C      -1.688225      1.090132      1.038752
  C      -1.908414      0.354766     -0.130244
  C      -2.076512      1.046895     -1.331466
  C      -2.006609      2.431371     -1.341704
  C      -1.784315      3.168500     -0.187422
  H      -1.452000      3.028719      1.923479
  H      -1.543786      0.568854      1.975189
  H      -2.248366      0.518095     -2.256910
  Cl     -2.208929      3.274887     -2.868052
  H      -1.726596      4.247502     -0.224206
  C      -1.985818     -1.140083     -0.019531
  C      -3.204573     -1.664502      0.715512
  H      -3.099932     -2.723370      0.947053
  H      -4.121519     -1.524821      0.135988
  H      -3.306724     -1.118265      1.652396
  N      -1.709863     -1.849944     -1.235100
  O      -2.313878     -2.898706     -1.481638
  O      -0.784877     -1.455264     -1.978080
  N       1.525124     -0.460893     -0.441962
  C       2.751121     -1.246125     -0.757195
  C       3.777136     -1.029437      0.340101
  O       4.071483      0.355172      0.504436
  C       2.902551      1.088905      0.861762
  C       1.835139      0.976630     -0.210133
  H       0.919775      1.477523      0.098569
  H       2.182202      1.404712     -1.150581
  H       3.199809      2.129557      0.978993
  H       2.513262      0.721918      1.819490
  H       4.709126     -1.526667      0.076608
  H       3.409615     -1.445350      1.286444
  H       3.134319     -0.908482     -1.720013
  H      -0.935879     -1.451072      0.690591
  H       0.839472     -0.562362     -1.198530
  H       2.470434     -2.296147     -0.827124
  H       0.344931     -2.548146      1.417519
  H       1.022690     -0.904523      0.423797
  O       0.130056     -1.607498      1.463929
38
Coordinates from ORCA-job /home/rudenko/2025/kie/for_orca/mcl-morpholine/orca/ts_opt/ts_opt E -1339.097080704774
  C      -1.621847      2.476933      1.009019
  C      -1.677625      1.089580      1.036999
  C      -1.899845      0.355123     -0.132254
  C      -2.072058      1.048894     -1.332077
  C      -2.003631      2.433464     -1.340736
  C      -1.779082      3.169487     -0.186193
  H      -1.441175      3.027055      1.923622
  H      -1.532145      0.567669      1.972987
  H      -2.247721      0.521603     -2.257481
  Cl     -2.211429      3.278515     -2.865614
  H      -1.725816      4.248658     -0.221247
  C      -1.983992     -1.139302     -0.020891
  C      -3.204623     -1.657109      0.715518
  H      -3.104953     -2.716321      0.947572
  H      -4.121525     -1.513266      0.137025
  H      -3.302944     -1.109870      1.652215
  N      -1.711647     -1.851167     -1.236384
  O      -2.321561     -2.896699     -1.483355
  O      -0.783376     -1.461866     -1.978204
  N       1.523937     -0.468866     -0.441819
  C       2.755076     -1.246442     -0.755409
  C       3.779365     -1.021588      0.341856
  O       4.064682      0.365133      0.504507
  C       2.890977      1.091577      0.860935
  C       1.824318      0.970982     -0.210832
  H       0.905485      1.465333      0.098143
  H       2.168150      1.401244     -1.151496
  H       3.181372      2.134290      0.976915
  H       2.504151      0.723157      1.819136
  H       4.714618     -1.513056      0.079100
  H       3.414441     -1.438790      1.288650
  H       3.136386     -0.907696     -1.718588
  H      -0.934518     -1.455762      0.689122
  H       0.839384     -0.575521     -1.198482
  H       2.481281     -2.298378     -0.823881
  H       0.342266     -2.562038      1.413524
  H       1.022473     -0.914706      0.424793
  O       0.133148     -1.620254      1.463304
38
Coordinates from ORCA-job /home/rudenko/2025/kie/for_orca/mcl-morpholine/orca/ts_opt/ts_opt E -1339.097100844831
  C      -1.619728      2.475508      1.015640
  C      -1.675175      1.088216      1.040846
  C      -1.890969      0.355404     -0.130827
  C      -2.057321      1.051473     -1.330112
  C      -1.988512      2.436077     -1.336006
  C      -1.770686      3.170358     -0.179109
  H      -1.443581      3.023833      1.932209
  H      -1.534739      0.565210      1.976996
  H      -2.228102      0.526124     -2.257598
  Cl     -2.186703      3.283290     -2.861030
  H      -1.719984      4.249729     -0.211584
  C      -1.982232     -1.138262     -0.020670
  C      -3.202956     -1.650767      0.719160
  H      -3.107756     -2.710894      0.948939
  H      -4.121324     -1.501324      0.144427
  H      -3.294942     -1.104854      1.657179
  N      -1.716176     -1.850206     -1.237488
  O      -2.330817     -2.893155     -1.484075
  O      -0.787851     -1.463738     -1.980678
  N       1.522940     -0.480302     -0.446487
  C       2.761402     -1.248759     -0.753098
  C       3.781025     -1.010227      0.345578
  O       4.054430      0.379540      0.502231
  C       2.873844      1.097817      0.852502
  C       1.810255      0.963129     -0.220643
  H       0.886697      1.450084      0.085495
  H       2.151502      1.393229     -1.162318
  H       3.155233      2.143506      0.963757
  H       2.488214      0.731082      1.811845
  H       4.720965     -1.495133      0.087350
  H       3.417302     -1.425973      1.293463
  H       3.142344     -0.911506     -1.716962
  H      -0.932942     -1.460962      0.686616
  H       0.841371     -0.595656     -1.204549
  H       2.496720     -2.303314     -0.817126
  H       0.331839     -2.577914      1.407725
  H       1.021346     -0.927116      0.420685
  O       0.135067     -1.633546      1.457718
38
Coordinates from ORCA-job /home/rudenko/2025/kie/for_orca/mcl-morpholine/orca/ts_opt/ts_opt E -1339.097109547692
  C      -1.621860      2.474778      1.018867
  C      -1.678495      1.087550      1.042730
  C      -1.891392      0.355639     -0.130127
  C      -2.053563      1.052967     -1.329328
  C      -1.984000      2.437559     -1.333731
  C      -1.769179      3.170779     -0.175657
  H      -1.447889      3.022146      1.936420
  H      -1.540964      0.563902      1.978960
  H      -2.221522      0.528752     -2.257841
  Cl     -2.176948      3.286194     -2.858636
  H      -1.718068      4.250121     -0.206991
  C      -1.983577     -1.138097     -0.020787
  C      -3.203541     -1.650694      0.720078
  H      -3.107992     -2.710842      0.949684
  H      -4.122410     -1.501436      0.146083
  H      -3.294896     -1.105016      1.658258
  N      -1.718565     -1.850912     -1.237056
  O      -2.333935     -2.893831     -1.482345
  O      -0.790533     -1.465962     -1.981636
  N       1.524424     -0.482559     -0.449284
  C       2.764336     -1.249870     -0.752562
  C       3.782026     -1.007892      0.347122
  O       4.053496      0.382499      0.501292
  C       2.871593      1.100038      0.848606
  C       1.809153      0.961708     -0.225232
  H       0.884442      1.447364      0.079717
  H       2.150120      1.391217     -1.167274
  H       3.151601      2.146342      0.957651
  H       2.485440      0.735183      1.808450
  H       4.722941     -1.492182      0.091291
  H       3.417374     -1.422109      1.295323
  H       3.146323     -0.914112     -1.716537
  H      -0.932226     -1.460865      0.686681
  H       0.844220     -0.599691     -1.208316
  H       2.501223     -2.304936     -0.814829
  H       0.325844     -2.580200      1.408632
  H       1.021605     -0.929179      0.417588
  O       0.135393     -1.634355      1.454735
38
Coordinates from ORCA-job /home/rudenko/2025/kie/for_orca/mcl-morpholine/orca/ts_opt/ts_opt E -1339.097117772452
  C      -1.620592      2.473522      1.021246
  C      -1.680916      1.086505      1.044651
  C      -1.893144      0.355266     -0.128783
  C      -2.050091      1.053175     -1.328295
  C      -1.977116      2.437636     -1.332143
  C      -1.763456      3.170147     -0.173469
  H      -1.447025      3.020149      1.939309
  H      -1.546421      0.562620      1.981198
  H      -2.215785      0.529734     -2.257666
  Cl     -2.163266      3.286991     -2.857455
  H      -1.709894      4.249309     -0.204381
  C      -1.986873     -1.138340     -0.019306
  C      -3.205804     -1.649860      0.723985
  H      -3.110026     -2.709787      0.954532
  H      -4.125553     -1.501175      0.151278
  H      -3.295671     -1.103490      1.661869
  N      -1.726157     -1.851432     -1.236464
  O      -2.342146     -2.894637     -1.478615
  O      -0.800637     -1.467241     -1.984330
  N       1.527575     -0.485475     -0.454012
  C       2.770758     -1.249057     -0.752485
  C       3.784175     -1.002757      0.350115
  O       4.051195      0.388570      0.503034
  C       2.866400      1.103174      0.846437
  C       1.806123      0.959896     -0.228952
  H       0.878858      1.441136      0.075501
  H       2.145799      1.391698     -1.170407
  H       3.143251      2.150529      0.953601
  H       2.479527      0.739529      1.806440
  H       4.727283     -1.484767      0.098083
  H       3.417557     -1.416571      1.297734
  H       3.154996     -0.913481     -1.715640
  H      -0.933314     -1.460422      0.684076
  H       0.850605     -0.604085     -1.215513
  H       2.511325     -2.305083     -0.814179
  H       0.317667     -2.587706      1.402488
  H       1.021985     -0.934703      0.410747
  O       0.138808     -1.639518      1.445773
38
Coordinates from ORCA-job /home/rudenko/2025/kie/for_orca/mcl-morpholine/orca/ts_opt/ts_opt E -1339.097125719763
  C      -1.619151      2.472998      1.021722
  C      -1.681991      1.086061      1.045227
  C      -1.894091      0.355036     -0.128332
  C      -2.048881      1.053015     -1.328062
  C      -1.973493      2.437376     -1.332011
  C      -1.759246      3.169637     -0.173296
  H      -1.445365      3.019444      1.939851
  H      -1.549076      0.562041      1.981930
  H      -2.214455      0.529829     -2.257516
  Cl     -2.156813      3.286907     -2.857536
  H      -1.702746      4.248691     -0.204471
  C      -1.987541     -1.138970     -0.018273
  C      -3.207003     -1.649858      0.724650
  H      -3.109968     -2.708800      0.959174
  H      -4.125846     -1.504679      0.149686
  H      -3.299493     -1.100320      1.660439
  N      -1.725640     -1.853467     -1.235256
  O      -2.340623     -2.897369     -1.476140
  O      -0.800757     -1.468866     -1.983118
  N       1.526928     -0.485365     -0.454643
  C       2.770656     -1.247854     -0.753379
  C       3.783843     -1.001066      0.349294
  O       4.049972      0.390404      0.502208
  C       2.864863      1.104106      0.846255
  C       1.803838      0.960060     -0.228316
  H       0.876199      1.439482      0.077686
  H       2.141672      1.393522     -1.169674
  H       3.141082      2.151691      0.952834
  H       2.478966      0.740541      1.806675
  H       4.727263     -1.482525      0.097388
  H       3.417338     -1.415079      1.296870
  H       3.154799     -0.911839     -1.716429
  H      -0.935732     -1.459009      0.683035
  H       0.850557     -0.603570     -1.216518
  H       2.512075     -2.304078     -0.815287
  H       0.316563     -2.590141      1.399549
  H       1.020886     -0.936440      0.409772
  O       0.140413     -1.641547      1.444013
38
Coordinates from ORCA-job /home/rudenko/2025/kie/for_orca/mcl-morpholine/orca/ts_opt/ts_opt E -1339.097142259385
  C      -1.621304      2.472028      1.022949
  C      -1.689431      1.085230      1.047860
  C      -1.896005      0.353826     -0.126272
  C      -2.039962      1.050238     -1.328133
  C      -1.960349      2.434380     -1.333339
  C      -1.750809      3.167185     -0.174102
  H      -1.452579      3.019367      1.941459
  H      -1.565440      0.561588      1.985973
  H      -2.202003      0.525868     -2.257595
  Cl     -2.132293      3.283117     -2.860491
  H      -1.687875      4.245981     -0.206756
  C      -1.989998     -1.140767     -0.015190
  C      -3.211138     -1.653627      0.723473
  H      -3.105379     -2.707506      0.976450
  H      -4.124750     -1.528275      0.135797
  H      -3.320584     -1.089991      1.648959
  N      -1.719646     -1.857452     -1.229698
  O      -2.324170     -2.908495     -1.465380
  O      -0.799251     -1.466002     -1.978652
  N       1.521767     -0.479457     -0.453415
  C       2.762521     -1.243695     -0.759478
  C       3.780304     -1.001975      0.340042
  O       4.050256      0.388572      0.494514
  C       2.868738      1.104032      0.846566
  C       1.800997      0.964479     -0.221960
  H       0.875249      1.442144      0.092221
  H       2.131966      1.402423     -1.163686
  H       3.147972      2.150900      0.952568
  H       2.487807      0.740203      1.808838
  H       4.721611     -1.485476      0.084267
  H       3.415748     -1.416650      1.288102
  H       3.144081     -0.905749     -1.722900
  H      -0.940850     -1.453436      0.686931
  H       0.843376     -0.593072     -1.213885
  H       2.501474     -2.299178     -0.823493
  H       0.319213     -2.587463      1.401952
  H       1.017385     -0.934422      0.410618
  O       0.143350     -1.638875      1.444887
38
Coordinates from ORCA-job /home/rudenko/2025/kie/for_orca/mcl-morpholine/orca/ts_opt/ts_opt E -1339.097152357910
  C      -1.623849      2.471897      1.025366
  C      -1.689170      1.084990      1.048231
  C      -1.895887      0.354745     -0.126675
  C      -2.043689      1.053003     -1.327181
  C      -1.966261      2.437221     -1.330389
  C      -1.756229      3.168661     -0.170385
  H      -1.454629      3.018155      1.944436
  H      -1.563050      0.560219      1.985459
  H      -2.206798      0.529837     -2.256987
  Cl     -2.141845      3.288013     -2.856035
  H      -1.696037      4.247567     -0.201386
  C      -1.990605     -1.139709     -0.017225
  C      -3.211442     -1.653655      0.720820
  H      -3.104179     -2.706980      0.975604
  H      -4.124537     -1.531069      0.131666
  H      -3.323329     -1.088749      1.645227
  N      -1.719653     -1.856938     -1.229950
  O      -2.324720     -2.908175     -1.465114
  O      -0.798041     -1.468084     -1.979579
  N       1.525041     -0.480849     -0.456138
  C       2.765800     -1.246878     -0.757909
  C       3.781452     -1.004019      0.343376
  O       4.052233      0.386619      0.496001
  C       2.870426      1.103779      0.843751
  C       1.805609      0.963392     -0.227561
  H       0.879539      1.443371      0.082515
  H       2.140282      1.398266     -1.169403
  H       3.150209      2.150560      0.949123
  H       2.486508      0.741549      1.805441
  H       4.722915     -1.488748      0.090496
  H       3.414547     -1.416720      1.291397
  H       3.149735     -0.911049     -1.721127
  H      -0.939120     -1.454090      0.689630
  H       0.847895     -0.595908     -1.217758
  H       2.503778     -2.302206     -0.820580
  H       0.317867     -2.581974      1.409569
  H       1.018860     -0.932708      0.408338
  O       0.140373     -1.633338      1.444936
38
Coordinates from ORCA-job /home/rudenko/2025/kie/for_orca/mcl-morpholine/orca/ts_opt/ts_opt E -1339.097178355024
  C      -1.612924      2.472452      1.020336
  C      -1.677335      1.085667      1.045669
  C      -1.896580      0.354024     -0.126065
  C      -2.055531      1.050547     -1.326055
  C      -1.978186      2.434653     -1.332018
  C      -1.758376      3.167764     -0.174801
  H      -1.434564      3.020028      1.936906
  H      -1.541689      0.561963      1.982147
  H      -2.226855      0.525375     -2.253580
  Cl     -2.167495      3.283133     -2.857419
  H      -1.701076      4.246590     -0.207555
  C      -1.994480     -1.138930     -0.015474
  C      -3.218179     -1.651611      0.719431
  H      -3.103730     -2.698980      0.995541
  H      -4.126025     -1.549896      0.118225
  H      -3.346223     -1.070471      1.631503
  N      -1.725202     -1.854302     -1.227625
  O      -2.326268     -2.909287     -1.458763
  O      -0.808394     -1.462607     -1.981875
  N       1.530334     -0.479002     -0.461086
  C       2.772622     -1.243403     -0.761244
  C       3.783625     -1.006537      0.345617
  O       4.053481      0.383376      0.506889
  C       2.869848      1.098170      0.853713
  C       1.810092      0.964044     -0.223432
  H       0.882615      1.442650      0.085126
  H       2.149585      1.404308     -1.161040
  H       3.148608      2.144367      0.967240
  H       2.481660      0.729473      1.811205
  H       4.726304     -1.489646      0.094175
  H       3.412949     -1.424453      1.289866
  H       3.160822     -0.902405     -1.720939
  H      -0.941744     -1.459306      0.695055
  H       0.856843     -0.590208     -1.226145
  H       2.510620     -2.298306     -0.830835
  H       0.327124     -2.576570      1.412196
  H       1.020241     -0.933972      0.399739
  O       0.143484     -1.628695      1.435374
38
Coordinates from ORCA-job /home/rudenko/2025/kie/for_orca/mcl-morpholine/orca/ts_opt/ts_opt E -1339.097202489708
  C      -1.606510      2.471178      1.021419
  C      -1.674454      1.084533      1.046159
  C      -1.898186      0.353743     -0.125250
  C      -2.060842      1.051569     -1.324038
  C      -1.979340      2.435483     -1.329651
  C      -1.752233      3.167410     -0.173099
  H      -1.423133      3.017722      1.937629
  H      -1.536222      0.559917      1.981810
  H      -2.236621      0.527782     -2.251187
  Cl     -2.171498      3.285012     -2.854160
  H      -1.689893      4.246037     -0.205866
  C      -1.996048     -1.139902     -0.013648
  C      -3.224259     -1.649260      0.717052
  H      -3.106968     -2.692144      1.008831
  H      -4.126860     -1.560832      0.106193
  H      -3.363690     -1.056145      1.619792
  N      -1.721985     -1.860221     -1.223886
  O      -2.320360     -2.917193     -1.451644
  O      -0.804836     -1.469594     -1.977128
  N       1.531779     -0.479133     -0.465220
  C       2.775905     -1.241237     -0.763285
  C       3.783925     -1.004323      0.346224
  O       4.051576      0.385728      0.509842
  C       2.865972      1.098289      0.854617
  C       1.809002      0.963885     -0.225243
  H       0.880475      1.440948      0.081978
  H       2.150207      1.406158     -1.161303
  H       3.142873      2.144763      0.970052
  H       2.476059      0.727891      1.810757
  H       4.727868     -1.485791      0.096325
  H       3.411719     -1.423927      1.289107
  H       3.166094     -0.898801     -1.721692
  H      -0.949737     -1.461694      0.696858
  H       0.860760     -0.589576     -1.232146
  H       2.515615     -2.296467     -0.834578
  H       0.329461     -2.576224      1.411779
  H       1.018668     -0.937239      0.395323
  O       0.145720     -1.628343      1.431280
38
Coordinates from ORCA-job /home/rudenko/2025/kie/for_orca/mcl-morpholine/orca/ts_opt/ts_opt E -1339.097220175635
  C      -1.601981      2.473464      1.015640
  C      -1.669871      1.086862      1.045307
  C      -1.896932      0.352416     -0.123033
  C      -2.061010      1.045768     -1.323977
  C      -1.980032      2.429716     -1.334637
  C      -1.751156      3.165653     -0.180939
  H      -1.417221      3.023171      1.929671
  H      -1.529936      0.565163      1.982328
  H      -2.238650      0.518435     -2.249081
  Cl     -2.176427      3.273792     -2.861689
  H      -1.688978      4.244258     -0.217532
  C      -1.995810     -1.140333     -0.007728
  C      -3.230829     -1.646755      0.715004
  H      -3.113651     -2.686268      1.018818
  H      -4.126979     -1.567532      0.093574
  H      -3.381774     -1.044842      1.610053
  N      -1.715176     -1.861526     -1.216443
  O      -2.306200     -2.922916     -1.442535
  O      -0.799835     -1.465413     -1.968398
  N       1.528955     -0.473724     -0.464368
  C       2.771747     -1.234080     -0.771810
  C       3.782462     -1.007125      0.337355
  O       4.051294      0.381305      0.512737
  C       2.866561      1.091604      0.865321
  C       1.808311      0.966941     -0.214432
  H       0.881063      1.443464      0.097061
  H       2.149815      1.415446     -1.147430
  H       3.144231      2.136846      0.989711
  H       2.477590      0.712945      1.818610
  H       4.725579     -1.486760      0.080861
  H       3.412423     -1.434904      1.277403
  H       3.159972     -0.884040     -1.728277
  H      -0.954642     -1.465673      0.707244
  H       0.855345     -0.577581     -1.229515
  H       2.510788     -2.288576     -0.851142
  H       0.340342     -2.574274      1.411903
  H       1.017704     -0.937850      0.394743
  O       0.152911     -1.627075      1.429624
38
Coordinates from ORCA-job /home/rudenko/2025/kie/for_orca/mcl-morpholine/orca/ts_opt/ts_opt E -1339.097237565240
  C      -1.607895      2.474067      1.017947
  C      -1.673468      1.087317      1.046238
  C      -1.897371      0.353286     -0.123030
  C      -2.061587      1.047687     -1.323527
  C      -1.982677      2.431764     -1.332787
  C      -1.756213      3.167065     -0.178224
  H      -1.425218      3.023201      1.932742
  H      -1.534153      0.565161      1.983122
  H      -2.237597      0.521218     -2.249233
  Cl     -2.178412      3.276964     -2.859321
  H      -1.695872      4.245808     -0.213688
  C      -1.996040     -1.139543     -0.008375
  C      -3.231180     -1.646326      0.713584
  H      -3.117222     -2.688363      1.009616
  H      -4.128434     -1.559224      0.094701
  H      -3.377818     -1.050283      1.613311
  N      -1.712969     -1.862598     -1.214747
  O      -2.303518     -2.924518     -1.440509
  O      -0.795940     -1.468519     -1.966462
  N       1.531533     -0.474603     -0.466386
  C       2.774027     -1.236144     -0.771717
  C       3.783744     -1.008597      0.338326
  O       4.053251      0.379822      0.512897
  C       2.868451      1.091514      0.862510
  C       1.812225      0.966255     -0.219117
  H       0.885007      1.445030      0.089044
  H       2.156680      1.411845     -1.152440
  H       3.146747      2.136648      0.986362
  H       2.477353      0.714151      1.815456
  H       4.726841     -1.488993      0.083167
  H       3.412464     -1.435378      1.278342
  H       3.163452     -0.887495     -1.728210
  H      -0.953703     -1.464836      0.711342
  H       0.857595     -0.579662     -1.231419
  H       2.512620     -2.290607     -0.850074
  H       0.334692     -2.572137      1.416568
  H       1.019676     -0.936829      0.393466
  O       0.150929     -1.624148      1.430524
38
Coordinates from ORCA-job /home/rudenko/2025/kie/for_orca/mcl-morpholine/orca/ts_opt/ts_opt E -1339.097258024303
  C      -1.611090      2.479255      1.009324
  C      -1.669360      1.092256      1.041852
  C      -1.897973      0.354153     -0.123795
  C      -2.071652      1.044071     -1.325514
  C      -2.000042      2.428448     -1.339105
  C      -1.771815      3.168145     -0.187618
  H      -1.426119      3.031796      1.921597
  H      -1.522699      0.573462      1.979527
  H      -2.251059      0.513991     -2.248801
  Cl     -2.209486      3.268519     -2.866708
  H      -1.720102      4.247129     -0.225799
  C      -1.996934     -1.137303     -0.005564
  C      -3.233613     -1.641650      0.714942
  H      -3.135991     -2.693536      0.979531
  H      -4.136007     -1.519581      0.109035
  H      -3.358946     -1.069165      1.633064
  N      -1.713773     -1.859743     -1.209938
  O      -2.302339     -2.923015     -1.436190
  O      -0.797434     -1.464344     -1.963154
  N       1.539139     -0.473279     -0.466902
  C       2.781256     -1.233552     -0.775429
  C       3.788942     -1.014238      0.338403
  O       4.058912      0.372640      0.524298
  C       2.873567      1.083621      0.873954
  C       1.821775      0.965991     -0.212798
  H       0.894100      1.446586      0.091894
  H       2.172869      1.413432     -1.142796
  H       3.152723      2.127490      1.006115
  H       2.478071      0.700285      1.822719
  H       4.732302     -1.493081      0.081312
  H       3.415490     -1.448070      1.274335
  H       3.172611     -0.878651     -1.728819
  H      -0.951248     -1.463110      0.723027
  H       0.862850     -0.575565     -1.230472
  H       2.520101     -2.287481     -0.861344
  H       0.328796     -2.574192      1.411112
  H       1.028373     -0.937616      0.389746
  O       0.155807     -1.624097      1.424960
38
Coordinates from ORCA-job /home/rudenko/2025/kie/for_orca/mcl-morpholine/orca/ts_opt/ts_opt E -1339.097270009898
  C      -1.610453      2.477691      1.011624
  C      -1.671712      1.090729      1.043000
  C      -1.900028      0.353833     -0.123491
  C      -2.072425      1.045219     -1.324628
  C      -1.997403      2.429451     -1.337138
  C      -1.767289      3.167714     -0.185108
  H      -1.424602      3.029150      1.924381
  H      -1.526042      0.570850      1.980228
  H      -2.252167      0.516457     -2.248336
  Cl     -2.203659      3.271163     -2.864237
  H      -1.710832      4.246586     -0.222858
  C      -1.997316     -1.138653     -0.005610
  C      -3.235497     -1.642467      0.712727
  H      -3.137998     -2.693989      0.978588
  H      -4.136640     -1.521164      0.104909
  H      -3.362853     -1.068884      1.629952
  N      -1.709068     -1.863510     -1.208750
  O      -2.296648     -2.926888     -1.435796
  O      -0.790095     -1.468833     -1.958412
  N       1.537900     -0.472944     -0.466907
  C       2.779901     -1.233644     -0.775213
  C       3.788341     -1.012623      0.337566
  O       4.058569      0.374532      0.520689
  C       2.873583      1.085982      0.870450
  C       1.820534      0.966614     -0.214901
  H       0.893244      1.447209      0.090302
  H       2.170265      1.413188     -1.145838
  H       3.152849      2.130103      1.000335
  H       2.479241      0.704360      1.820390
  H       4.731487     -1.492068      0.080812
  H       3.415334     -1.444672      1.274491
  H       3.170704     -0.880188     -1.729380
  H      -0.956258     -1.461734      0.723556
  H       0.861690     -0.576236     -1.230405
  H       2.518584     -2.287672     -0.859414
  H       0.326203     -2.573684      1.412824
  H       1.027017     -0.937379      0.391444
  O       0.153537     -1.623600      1.428152
38
Coordinates from ORCA-job /home/rudenko/2025/kie/for_orca/mcl-morpholine/orca/ts_opt/ts_opt E -1339.097239058299
  C      -1.610792      2.481126      1.000438
  C      -1.673861      1.094321      1.040101
  C      -1.899252      0.351144     -0.122978
  C      -2.064234      1.035055     -1.329133
  C      -1.987806      2.419094     -1.349870
  C      -1.762088      3.164069     -0.201229
  H      -1.429034      3.038094      1.910665
  H      -1.532946      0.579864      1.980942
  H      -2.240538      0.499889     -2.250344
  Cl     -2.187496      3.251831     -2.882739
  H      -1.701726      4.242597     -0.245880
  C      -1.993949     -1.140709     -0.000490
  C      -3.235056     -1.644526      0.712779
  H      -3.147658     -2.701968      0.957444
  H      -4.137968     -1.501157      0.112115
  H      -3.352197     -1.087288      1.641409
  N      -1.696338     -1.863564     -1.201232
  O      -2.280001     -2.927934     -1.434641
  O      -0.774857     -1.462537     -1.944523
  N       1.525979     -0.463228     -0.454149
  C       2.763114     -1.222578     -0.785757
  C       3.784669     -1.014898      0.317631
  O       4.058790      0.370009      0.512401
  C       2.878846      1.078927      0.883554
  C       1.814023      0.972984     -0.191576
  H       0.891003      1.452671      0.127382
  H       2.155243      1.427238     -1.121921
  H       3.160704      2.121262      1.022036
  H       2.494600      0.686843      1.833355
  H       4.724153     -1.492872      0.045281
  H       3.421490     -1.456375      1.254057
  H       3.143117     -0.858589     -1.740294
  H      -0.955257     -1.457812      0.738586
  H       0.840031     -0.559550     -1.209554
  H       2.498809     -2.275071     -0.878973
  H       0.324020     -2.576569      1.413726
  H       1.027539     -0.934121      0.403743
  O       0.156923     -1.625673      1.437639
38
Coordinates from ORCA-job /home/rudenko/2025/kie/for_orca/mcl-morpholine/orca/ts_opt/ts_opt E -1339.097273177824
  C      -1.611216      2.478736      1.008965
  C      -1.672281      1.091806      1.042078
  C      -1.899955      0.353427     -0.123625
  C      -2.072368      1.043314     -1.325639
  C      -1.997261      2.427483     -1.339923
  C      -1.767426      3.167200     -0.188734
  H      -1.425925      3.031418      1.921097
  H      -1.527090      0.573211      1.980094
  H      -2.252233      0.513136     -2.248577
  Cl     -2.203181      3.267319     -2.868112
  H      -1.710266      4.245938     -0.227996
  C      -1.997047     -1.138845     -0.004647
  C      -3.235737     -1.642179      0.712784
  H      -3.144554     -2.697505      0.965200
  H      -4.138971     -1.506781      0.110910
  H      -3.354832     -1.078851      1.637504
  N      -1.706799     -1.863722     -1.206230
  O      -2.295562     -2.926164     -1.435781
  O      -0.785008     -1.470434     -1.953728
  N       1.537228     -0.471707     -0.464866
  C       2.779012     -1.231197     -0.777562
  C       3.789212     -1.012546      0.334125
  O       4.059142      0.374344      0.520223
  C       2.874366      1.084537      0.873302
  C       1.820265      0.967451     -0.211233
  H       0.893327      1.448147      0.095015
  H       2.169653      1.414838     -1.141896
  H       3.153295      2.128450      1.005583
  H       2.481289      0.700181      1.822665
  H       4.732149     -1.491024      0.074845
  H       3.417735     -1.446975      1.270570
  H       3.167920     -0.874686     -1.731361
  H      -0.955605     -1.459312      0.729949
  H       0.858908     -0.574765     -1.226731
  H       2.517792     -2.285022     -0.864434
  H       0.319682     -2.576407      1.412697
  H       1.029579     -0.937483      0.393342
  O       0.152761     -1.625331      1.430125
38
Coordinates from ORCA-job /home/rudenko/2025/kie/for_orca/mcl-morpholine/orca/ts_opt/ts_opt E -1339.097261641204
  C      -1.604182      2.475856      1.010502
  C      -1.670701      1.089135      1.043725
  C      -1.899052      0.351774     -0.122436
  C      -2.064304      1.041735     -1.325137
  C      -1.984559      2.425744     -1.339424
  C      -1.755418      3.164777     -0.187721
  H      -1.419100      3.028015      1.922984
  H      -1.529240      0.569868      1.981874
  H      -2.242439      0.511883     -2.248796
  Cl     -2.183522      3.265932     -2.868259
  H      -1.693759      4.243417     -0.227112
  C      -1.996666     -1.140729     -0.004121
  C      -3.234729     -1.644634      0.714942
  H      -3.131046     -2.692197      0.994135
  H      -4.133865     -1.537283      0.101728
  H      -3.370308     -1.060884      1.624445
  N      -1.710676     -1.863102     -1.210532
  O      -2.299125     -2.925354     -1.438880
  O      -0.794219     -1.464633     -1.960103
  N       1.530504     -0.470868     -0.462880
  C       2.772399     -1.229854     -0.776545
  C       3.784508     -1.009124      0.332831
  O       4.053977      0.378151      0.516114
  C       2.869690      1.087598      0.872104
  C       1.811679      0.968439     -0.208485
  H       0.885047      1.446142      0.102836
  H       2.155468      1.418379     -1.139993
  H       3.148200      2.131961      1.001773
  H       2.480222      0.704493      1.823430
  H       4.727221     -1.487433      0.072418
  H       3.415272     -1.442326      1.270718
  H       3.159438     -0.874640     -1.731576
  H      -0.957285     -1.463767      0.718593
  H       0.853199     -0.572782     -1.224978
  H       2.511679     -2.283969     -0.861288
  H       0.335816     -2.575430      1.408961
  H       1.022858     -0.937688      0.395012
  O       0.157021     -1.626602      1.429142
38
Coordinates from ORCA-job /home/rudenko/2025/kie/for_orca/mcl-morpholine/orca/ts_opt/ts_opt E -1339.097276605721
  C      -1.609518      2.476932      1.011573
  C      -1.672733      1.090072      1.043624
  C      -1.899157      0.352828     -0.123054
  C      -2.067878      1.043754     -1.324953
  C      -1.990896      2.427871     -1.338104
  C      -1.762361      3.166471     -0.185979
  H      -1.425215      3.028722      1.924442
  H      -1.530028      0.570584      1.981505
  H      -2.246257      0.514514     -2.248708
  Cl     -2.192416      3.268987     -2.866142
  H      -1.703481      4.245192     -0.224410
  C      -1.996973     -1.139652     -0.005075
  C      -3.235145     -1.643253      0.713321
  H      -3.138610     -2.695455      0.976873
  H      -4.136847     -1.519602      0.106801
  H      -3.360958     -1.071377      1.631822
  N      -1.708860     -1.863981     -1.208361
  O      -2.298813     -2.925647     -1.437474
  O      -0.788061     -1.470477     -1.956435
  N       1.534946     -0.472231     -0.465130
  C       2.777132     -1.231738     -0.776339
  C       3.787396     -1.010461      0.334700
  O       4.056770      0.376905      0.517825
  C       2.871832      1.087088      0.870277
  C       1.816904      0.967440     -0.213199
  H       0.889834      1.447308      0.093748
  H       2.164608      1.414461     -1.144665
  H       3.150306      2.131418      1.000223
  H       2.479642      0.704498      1.820712
  H       4.730488     -1.489067      0.076215
  H       3.416360     -1.443110      1.272137
  H       3.165793     -0.877041     -1.730912
  H      -0.956088     -1.461450      0.724897
  H       0.857530     -0.576054     -1.227512
  H       2.516323     -2.285845     -0.861010
  H       0.324810     -2.575680      1.412807
  H       1.026744     -0.937412      0.393586
  O       0.152879     -1.625512      1.430375
38
Coordinates from ORCA-job /home/rudenko/2025/kie/for_orca/mcl-morpholine/orca/ts_opt/ts_opt E -1339.097276633557
  C      -1.608975      2.477342      1.009779
  C      -1.672290      1.090523      1.042903
  C      -1.899236      0.352477     -0.123162
  C      -2.068155      1.042463     -1.325550
  C      -1.990952      2.426537     -1.339798
  C      -1.762103      3.165977     -0.188257
  H      -1.424430      3.029819      1.922184
  H      -1.529432      0.571765      1.981168
  H      -2.246953      0.512406     -2.248830
  Cl     -2.192811      3.266540     -2.868409
  H      -1.702917      4.244615     -0.227560
  C      -1.997149     -1.139773     -0.004488
  C      -3.235270     -1.642932      0.714148
  H      -3.142044     -2.697119      0.970693
  H      -4.138382     -1.511822      0.111207
  H      -3.356139     -1.076366      1.636616
  N      -1.709394     -1.863697     -1.207593
  O      -2.300377     -2.924649     -1.437847
  O      -0.788061     -1.470522     -1.955415
  N       1.535000     -0.471795     -0.464310
  C       2.777408     -1.230264     -0.777318
  C       3.787985     -1.010105      0.333682
  O       4.056760      0.377155      0.518720
  C       2.871590      1.086367      0.872414
  C       1.816593      0.967719     -0.211095
  H       0.889403      1.447286      0.096130
  H       2.164346      1.415477     -1.142182
  H       3.149596      2.130641      1.003821
  H       2.479719      0.702204      1.822346
  H       4.731218     -1.487906      0.074238
  H       3.417422     -1.444254      1.270619
  H       3.165438     -0.873761     -1.731470
  H      -0.955518     -1.460584      0.727228
  H       0.856818     -0.575510     -1.226042
  H       2.517044     -2.284340     -0.863616
  H       0.322487     -2.577379      1.411293
  H       1.028282     -0.937835      0.393791
  O       0.153480     -1.626702      1.429962
38
Coordinates from ORCA-job /home/rudenko/2025/kie/for_orca/mcl-morpholine/orca/ts_opt/ts_opt E -1339.097278755372
  C      -1.608591      2.476603      1.010911
  C      -1.672730      1.089813      1.043558
  C      -1.899095      0.352207     -0.122911
  C      -2.066932      1.042689     -1.325185
  C      -1.988894      2.426729     -1.338943
  C      -1.760308      3.165676     -0.187043
  H      -1.424336      3.028697      1.923606
  H      -1.530762      0.570694      1.981757
  H      -2.245370      0.513076     -2.248741
  Cl     -2.189092      3.267314     -2.867440
  H      -1.700242      4.244282     -0.226006
  C      -1.997369     -1.140166     -0.004486
  C      -3.235690     -1.643007      0.714033
  H      -3.142203     -2.696893      0.971744
  H      -4.138504     -1.512883      0.110462
  H      -3.357258     -1.075517      1.635840
  N      -1.709630     -1.864454     -1.207599
  O      -2.301251     -2.924982     -1.437924
  O      -0.787652     -1.472099     -1.954965
  N       1.534702     -0.472053     -0.464841
  C       2.777466     -1.230265     -0.777154
  C       3.787749     -1.009056      0.333897
  O       4.056035      0.378414      0.518048
  C       2.870566      1.087457      0.871067
  C       1.815765      0.967724     -0.212513
  H       0.888400      1.447181      0.094270
  H       2.163480      1.415008     -1.143846
  H       3.148200      2.131913      1.001792
  H       2.478681      0.703822      1.821208
  H       4.731193     -1.486719      0.074965
  H       3.417148     -1.442690      1.271054
  H       3.165561     -0.874200     -1.731446
  H      -0.956342     -1.460948      0.726889
  H       0.856767     -0.576451     -1.226732
  H       2.517479     -2.284482     -0.862874
  H       0.322313     -2.577527      1.411565
  H       1.027884     -0.937974      0.393643
  O       0.152864     -1.626936      1.430336
38
Coordinates from ORCA-job /home/rudenko/2025/kie/for_orca/mcl-morpholine/orca/ts_opt/ts_opt E -1339.097279692027
  C      -1.608241      2.476248      1.011287
  C      -1.672884      1.089483      1.043880
  C      -1.898833      0.351964     -0.122732
  C      -2.065716      1.042515     -1.325094
  C      -1.987194      2.426534     -1.338784
  C      -1.759017      3.165389     -0.186751
  H      -1.424314      3.028265      1.924094
  H      -1.531622      0.570313      1.982154
  H      -2.243767      0.512981     -2.248774
  Cl     -2.186174      3.267200     -2.867390
  H      -1.698501      4.243972     -0.225675
  C      -1.997430     -1.140396     -0.004365
  C      -3.235729     -1.643038      0.714348
  H      -3.142152     -2.696812      0.972511
  H      -4.138533     -1.513272      0.110696
  H      -3.357374     -1.075186      1.635915
  N      -1.710225     -1.864622     -1.207697
  O      -2.302574     -2.924688     -1.438221
  O      -0.788098     -1.472632     -1.955040
  N       1.534292     -0.472181     -0.464960
  C       2.777314     -1.230016     -0.777207
  C       3.787526     -1.008338      0.333813
  O       4.055362      0.379244      0.517784
  C       2.869664      1.087951      0.870713
  C       1.814889      0.967723     -0.212835
  H       0.887383      1.446933      0.093897
  H       2.162438      1.414980     -1.144242
  H       3.146960      2.132516      1.001289
  H       2.477907      0.704325      1.820910
  H       4.731127     -1.485724      0.074943
  H       3.417073     -1.441969      1.271029
  H       3.165277     -0.873915     -1.731538
  H      -0.956333     -1.461321      0.726591
  H       0.856389     -0.576878     -1.226816
  H       2.517675     -2.284326     -0.862815
  H       0.322735     -2.577800      1.411311
  H       1.027695     -0.938157      0.393543
  O       0.153006     -1.627263      1.430226
