10
Coordinates from ORCA-job /home/rudenko/2025/kie/for_orca/ch3no2_h2o/orca/ts_opt/ts_opt E -321.457452417852
  C      -0.409521      0.243580     -0.422005
  H       0.037978     -0.191838     -1.307985
  H      -0.255336      1.321438     -0.393116
  H      -0.049145     -0.210325      0.495477
  N      -1.884801      0.032505     -0.490913
  O      -2.522347      0.151668      0.543646
  O      -2.381163     -0.223842     -1.576517
  H       2.537209     -0.968959      0.535724
  O       2.483347     -0.549815      1.403922
  H       2.443779      0.395588      1.211765
10
Coordinates from ORCA-job /home/rudenko/2025/kie/for_orca/ch3no2_h2o/orca/ts_opt/ts_opt E -321.456402713016
  C      -0.413261      0.245473     -0.423877
  H       0.037284     -0.186015     -1.315174
  H      -0.255201      1.328979     -0.400268
  H      -0.062889     -0.207362      0.488817
  N      -1.888111      0.030521     -0.489980
  O      -2.523631      0.145309      0.546318
  O      -2.386222     -0.224517     -1.575092
  H       2.543015     -0.967697      0.557835
  O       2.493571     -0.547350      1.396239
  H       2.455444      0.382658      1.215181
10
Coordinates from ORCA-job /home/rudenko/2025/kie/for_orca/ch3no2_h2o/orca/ts_opt/ts_opt E -321.454246938684
  C      -0.414753      0.254561     -0.427995
  H       0.036460     -0.163836     -1.321551
  H      -0.245126      1.333858     -0.425391
  H      -0.090558     -0.202529      0.496444
  N      -1.889566      0.034126     -0.490838
  O      -2.515357      0.119473      0.553986
  O      -2.392964     -0.228073     -1.572078
  H       2.539176     -0.983798      0.578718
  O       2.504753     -0.540336      1.389645
  H       2.467935      0.376554      1.219061
10
Coordinates from ORCA-job /home/rudenko/2025/kie/for_orca/ch3no2_h2o/orca/ts_opt/ts_opt E -321.453010488817
  C      -0.416726      0.252500     -0.426034
  H       0.037553     -0.147922     -1.325044
  H      -0.245313      1.330040     -0.442850
  H      -0.113118     -0.212400      0.516150
  N      -1.890853      0.014776     -0.491053
  O      -2.518364      0.119283      0.551005
  O      -2.400939     -0.209064     -1.577956
  H       2.542887     -1.001614      0.588509
  O       2.525253     -0.532876      1.384613
  H       2.479621      0.387276      1.222660
10
Coordinates from ORCA-job /home/rudenko/2025/kie/for_orca/ch3no2_h2o/orca/ts_opt/ts_opt E -321.452436824459
  C      -0.420718      0.265213     -0.421320
  H       0.034025     -0.132448     -1.322473
  H      -0.238912      1.340017     -0.460676
  H      -0.139557     -0.201181      0.533600
  N      -1.896823      0.031853     -0.497387
  O      -2.522098      0.085499      0.549987
  O      -2.398456     -0.220354     -1.581979
  H       2.536778     -1.035130      0.599760
  O       2.544844     -0.528573      1.382497
  H       2.500917      0.395106      1.217991
10
Coordinates from ORCA-job /home/rudenko/2025/kie/for_orca/ch3no2_h2o/orca/ts_opt/ts_opt E -321.451663164389
  C      -0.428255      0.264054     -0.409527
  H       0.030171     -0.132709     -1.310536
  H      -0.246740      1.338219     -0.468147
  H      -0.161932     -0.199105      0.553015
  N      -1.904432      0.025270     -0.503661
  O      -2.540880      0.069057      0.537659
  O      -2.398368     -0.192778     -1.598960
  H       2.541635     -1.062554      0.617256
  O       2.578531     -0.517222      1.379261
  H       2.530271      0.407768      1.203639
10
Coordinates from ORCA-job /home/rudenko/2025/kie/for_orca/ch3no2_h2o/orca/ts_opt/ts_opt E -321.451594761545
  C      -0.438372      0.265428     -0.396594
  H       0.023728     -0.142069     -1.291752
  H      -0.257964      1.338550     -0.472011
  H      -0.180521     -0.189638      0.570988
  N      -1.914228      0.028024     -0.512642
  O      -2.561693      0.038260      0.522900
  O      -2.395314     -0.160468     -1.618850
  H       2.544289     -1.089733      0.641764
  O       2.614165     -0.506124      1.379356
  H       2.565909      0.417770      1.176839
10
Coordinates from ORCA-job /home/rudenko/2025/kie/for_orca/ch3no2_h2o/orca/ts_opt/ts_opt E -321.452454342045
  C      -0.450186      0.263915     -0.383960
  H       0.016615     -0.161218     -1.268607
  H      -0.273301      1.336323     -0.470555
  H      -0.194641     -0.179196      0.584869
  N      -1.924820      0.029410     -0.522239
  O      -2.585128      0.006239      0.505085
  O      -2.392815     -0.116227     -1.640319
  H       2.548708     -1.110278      0.668942
  O       2.651832     -0.494214      1.384392
  H       2.603735      0.425247      1.142391
10
Coordinates from ORCA-job /home/rudenko/2025/kie/for_orca/ch3no2_h2o/orca/ts_opt/ts_opt E -321.453437539189
  C      -0.442017      0.261462     -0.394232
  H       0.018741     -0.158847     -1.283989
  H      -0.265417      1.335195     -0.462304
  H      -0.173561     -0.187518      0.565658
  N      -1.917623      0.029061     -0.515271
  O      -2.570155      0.038268      0.517164
  O      -2.394842     -0.145882     -1.625271
  H       2.550409     -1.091135      0.638461
  O       2.620685     -0.504945      1.389970
  H       2.573779      0.424342      1.169813
10
Coordinates from ORCA-job /home/rudenko/2025/kie/for_orca/ch3no2_h2o/orca/ts_opt/ts_opt E -321.453758757679
  C      -0.453006      0.262059     -0.383783
  H       0.013673     -0.173459     -1.263160
  H      -0.278227      1.334993     -0.463853
  H      -0.189398     -0.176455      0.579955
  N      -1.927072      0.030191     -0.523902
  O      -2.589743      0.002927      0.501740
  O      -2.393241     -0.104688     -1.644101
  H       2.551444     -1.110213      0.668111
  O       2.656026     -0.493347      1.394150
  H       2.609545      0.427992      1.134843
10
Coordinates from ORCA-job /home/rudenko/2025/kie/for_orca/ch3no2_h2o/orca/ts_opt/ts_opt E -321.454649239340
  C      -0.445543      0.258272     -0.393521
  H       0.014614     -0.174836     -1.276883
  H      -0.271982      1.332395     -0.455014
  H      -0.167178     -0.185314      0.561729
  N      -1.920895      0.030995     -0.517784
  O      -2.576541      0.033889      0.512724
  O      -2.395521     -0.129502     -1.631009
  H       2.555086     -1.088182      0.639901
  O       2.626451     -0.503579      1.399592
  H       2.581510      0.425862      1.160263
10
Coordinates from ORCA-job /home/rudenko/2025/kie/for_orca/ch3no2_h2o/orca/ts_opt/ts_opt E -321.454734804993
  C      -0.455848      0.259933     -0.384024
  H       0.010849     -0.186411     -1.257461
  H      -0.283272      1.333214     -0.458272
  H      -0.183937     -0.174047      0.576720
  N      -1.929578      0.031727     -0.525897
  O      -2.593981     -0.002680      0.498382
  O      -2.394314     -0.090497     -1.648127
  H       2.554147     -1.107220      0.670478
  O       2.660238     -0.491966      1.402640
  H       2.615696      0.427947      1.125560
10
Coordinates from ORCA-job /home/rudenko/2025/kie/for_orca/ch3no2_h2o/orca/ts_opt/ts_opt E -321.456426037154
  C      -0.464460      0.253865     -0.384602
  H       0.004410     -0.219465     -1.241360
  H      -0.296743      1.327719     -0.447615
  H      -0.174549     -0.167719      0.571757
  N      -1.937475      0.036198     -0.531699
  O      -2.606518     -0.023407      0.488338
  O      -2.397992     -0.046905     -1.659163
  H       2.561356     -1.097121      0.684285
  O       2.676601     -0.485544      1.423236
  H       2.635371      0.422378      1.096822
10
Coordinates from ORCA-job /home/rudenko/2025/kie/for_orca/ch3no2_h2o/orca/ts_opt/ts_opt E -321.456470243579
  C      -0.471579      0.251349     -0.373477
  H       0.006368     -0.227485     -1.220797
  H      -0.321159      1.323604     -0.449931
  H      -0.181398     -0.157452      0.587805
  N      -1.944159      0.038687     -0.533379
  O      -2.634168     -0.045649      0.470439
  O      -2.380569     -0.014934     -1.672049
  H       2.562355     -1.105377      0.711733
  O       2.709337     -0.477136      1.418127
  H       2.654973      0.414394      1.061529
10
Coordinates from ORCA-job /home/rudenko/2025/kie/for_orca/ch3no2_h2o/orca/ts_opt/ts_opt E -321.456365963125
  C      -0.478944      0.249592     -0.362428
  H       0.011349     -0.234796     -1.198452
  H      -0.348361      1.324209     -0.452828
  H      -0.189216     -0.145451      0.606670
  N      -1.950814      0.039533     -0.537624
  O      -2.656758     -0.069833      0.451121
  O      -2.368295      0.017241     -1.685291
  H       2.563002     -1.119518      0.741007
  O       2.744817     -0.469271      1.414497
  H       2.673219      0.408293      1.023329
10
Coordinates from ORCA-job /home/rudenko/2025/kie/for_orca/ch3no2_h2o/orca/ts_opt/ts_opt E -321.456287626724
  C      -0.485330      0.248265     -0.353851
  H       0.018827     -0.241357     -1.178424
  H      -0.373114      1.325198     -0.456201
  H      -0.198570     -0.131585      0.623243
  N      -1.956139      0.039095     -0.543438
  O      -2.670826     -0.096350      0.434487
  O      -2.362922      0.050172     -1.695921
  H       2.561324     -1.134279      0.771414
  O       2.778155     -0.459876      1.411772
  H       2.688597      0.400717      0.986921
10
Coordinates from ORCA-job /home/rudenko/2025/kie/for_orca/ch3no2_h2o/orca/ts_opt/ts_opt E -321.456216526665
  C      -0.490701      0.247654     -0.347661
  H       0.027528     -0.246574     -1.161084
  H      -0.393415      1.326191     -0.459646
  H      -0.209191     -0.115926      0.637103
  N      -1.960298      0.038597     -0.549721
  O      -2.678530     -0.125629      0.420521
  O      -2.361950      0.082268     -1.703651
  H       2.557224     -1.147754      0.803442
  O       2.808548     -0.450748      1.408891
  H       2.700784      0.391922      0.951805
10
Coordinates from ORCA-job /home/rudenko/2025/kie/for_orca/ch3no2_h2o/orca/ts_opt/ts_opt E -321.456139660139
  C      -0.495185      0.247365     -0.343393
  H       0.036844     -0.250488     -1.146040
  H      -0.409338      1.326974     -0.463210
  H      -0.220856     -0.099409      0.648993
  N      -1.963509      0.037869     -0.555880
  O      -2.682072     -0.156588      0.408392
  O      -2.363646      0.113588     -1.708744
  H       2.551243     -1.159528      0.836677
  O       2.836481     -0.441894      1.405049
  H       2.710038      0.382112      0.918156
10
Coordinates from ORCA-job /home/rudenko/2025/kie/for_orca/ch3no2_h2o/orca/ts_opt/ts_opt E -321.456046384128
  C      -0.498879      0.247392     -0.340620
  H       0.046517     -0.253230     -1.132819
  H      -0.421376      1.327704     -0.466854
  H      -0.233290     -0.082586      0.659398
  N      -1.965964      0.037095     -0.561514
  O      -2.682894     -0.188566      0.397375
  O      -2.366851      0.143768     -1.711511
  H       2.543861     -1.169525      0.870848
  O       2.862329     -0.433553      1.399734
  H       2.716547      0.371501      0.885963
10
Coordinates from ORCA-job /home/rudenko/2025/kie/for_orca/ch3no2_h2o/orca/ts_opt/ts_opt E -321.455929435172
  C      -0.501891      0.247711     -0.339064
  H       0.056452     -0.255171     -1.120937
  H      -0.430355      1.328504     -0.470721
  H      -0.246089     -0.065932      0.668526
  N      -1.967848      0.036302     -0.566461
  O      -2.681905     -0.221007      0.386949
  O      -2.371078      0.172977     -1.712209
  H       2.535768     -1.177655      0.905795
  O       2.886511     -0.425908      1.392887
  H       2.720434      0.360180      0.855235
10
Coordinates from ORCA-job /home/rudenko/2025/kie/for_orca/ch3no2_h2o/orca/ts_opt/ts_opt E -321.455791648156
  C      -0.504337      0.248520     -0.338652
  H       0.066537     -0.256438     -1.110187
  H      -0.436918      1.329614     -0.475101
  H      -0.258970     -0.049623      0.676215
  N      -1.969318      0.035461     -0.570674
  O      -2.679385     -0.253674      0.376967
  O      -2.376361      0.201194     -1.710966
  H       2.527505     -1.183940      0.941393
  O       2.909392     -0.419163      1.384791
  H       2.721854      0.348049      0.826214
10
Coordinates from ORCA-job /home/rudenko/2025/kie/for_orca/ch3no2_h2o/orca/ts_opt/ts_opt E -321.455646662767
  C      -0.506346      0.250165     -0.339325
  H       0.076443     -0.256964     -1.100538
  H      -0.441363      1.331329     -0.480163
  H      -0.271725     -0.033576      0.682240
  N      -1.970443      0.034488     -0.574193
  O      -2.675226     -0.286581      0.367441
  O      -2.382845      0.228152     -1.707910
  H       2.519232     -1.188552      0.977519
  O       2.931200     -0.413477      1.375737
  H       2.721072      0.335017      0.799191
10
Coordinates from ORCA-job /home/rudenko/2025/kie/for_orca/ch3no2_h2o/orca/ts_opt/ts_opt E -321.455517252828
  C      -0.508014      0.253135     -0.341108
  H       0.085860     -0.256512     -1.092206
  H      -0.443716      1.334050     -0.486059
  H      -0.284215     -0.017528      0.686353
  N      -1.971191      0.033241     -0.577013
  O      -2.668982     -0.319949      0.358601
  O      -2.390705      0.253348     -1.703085
  H       2.510729     -1.191654      1.014027
  O       2.951942     -0.409133      1.366023
  H       2.718293      0.321001      0.774469
10
Coordinates from ORCA-job /home/rudenko/2025/kie/for_orca/ch3no2_h2o/orca/ts_opt/ts_opt E -321.455428054465
  C      -0.509416      0.257919     -0.343862
  H       0.094360     -0.254844     -1.085209
  H      -0.443969      1.338195     -0.492908
  H      -0.296028     -0.001118      0.688719
  N      -1.971449      0.031538     -0.579169
  O      -2.660247     -0.354132      0.350510
  O      -2.399874      0.276274     -1.696637
  H       2.501540     -1.193317      1.050726
  O       2.971298     -0.406420      1.355696
  H       2.713784      0.305906      0.752134
10
Coordinates from ORCA-job /home/rudenko/2025/kie/for_orca/ch3no2_h2o/orca/ts_opt/ts_opt E -321.455397388001
  C      -0.510661      0.264877     -0.347216
  H       0.101553     -0.251951     -1.079236
  H      -0.442392      1.344118     -0.500782
  H      -0.306484      0.016024      0.689799
  N      -1.971131      0.029286     -0.580730
  O      -2.648901     -0.389487      0.342928
  O      -2.410033      0.296636     -1.688834
  H       2.491329     -1.193531      1.087442
  O       2.988896     -0.405628      1.344696
  H       2.707823      0.289655      0.731934
10
Coordinates from ORCA-job /home/rudenko/2025/kie/for_orca/ch3no2_h2o/orca/ts_opt/ts_opt E -321.455435763672
  C      -0.511883      0.274224     -0.350718
  H       0.107037     -0.248157     -1.073609
  H      -0.439581      1.352048     -0.509665
  H      -0.315083      0.034256      0.689928
  N      -1.970205      0.026518     -0.581812
  O      -2.635103     -0.426197      0.335373
  O      -2.420753      0.314394     -1.680018
  H       2.480184     -1.192402      1.124004
  O       3.004766     -0.406982      1.333028
  H       2.700621      0.272297      0.713490
10
Coordinates from ORCA-job /home/rudenko/2025/kie/for_orca/ch3no2_h2o/orca/ts_opt/ts_opt E -321.455697455410
  C      -0.510329      0.270686     -0.350687
  H       0.097800     -0.250077     -1.082722
  H      -0.433911      1.348692     -0.501401
  H      -0.304730      0.020168      0.684493
  N      -1.969724      0.027377     -0.579735
  O      -2.640716     -0.396980      0.346418
  O      -2.415243      0.293349     -1.685514
  H       2.486166     -1.192471      1.087463
  O       2.984725     -0.406663      1.347762
  H       2.705962      0.285919      0.733923
10
Coordinates from ORCA-job /home/rudenko/2025/kie/for_orca/ch3no2_h2o/orca/ts_opt/ts_opt E -321.455616485328
  C      -0.511502      0.277960     -0.352050
  H       0.104229     -0.247018     -1.074696
  H      -0.435571      1.354616     -0.510943
  H      -0.313468      0.037391      0.687104
  N      -1.969115      0.024958     -0.581261
  O      -2.630488     -0.430702      0.337018
  O      -2.423041      0.312511     -1.678188
  H       2.477325     -1.191854      1.123801
  O       3.001825     -0.407949      1.333803
  H       2.699806      0.270087      0.715412
10
Coordinates from ORCA-job /home/rudenko/2025/kie/for_orca/ch3no2_h2o/orca/ts_opt/ts_opt E -321.455738581674
  C      -0.513094      0.290075     -0.353779
  H       0.106526     -0.243443     -1.067336
  H      -0.433861      1.364672     -0.521126
  H      -0.318648      0.058131      0.688013
  N      -1.967714      0.021799     -0.582162
  O      -2.615884     -0.469065      0.327498
  O      -2.432303      0.327696     -1.669615
  H       2.465995     -1.189855      1.159693
  O       3.016328     -0.411849      1.320959
  H       2.692653      0.251839      0.697855
10
Coordinates from ORCA-job /home/rudenko/2025/kie/for_orca/ch3no2_h2o/orca/ts_opt/ts_opt E -321.455792475581
  C      -0.511653      0.281893     -0.353663
  H       0.101077     -0.246384     -1.076399
  H      -0.430800      1.357933     -0.511002
  H      -0.311420      0.039893      0.684335
  N      -1.968415      0.024192     -0.580689
  O      -2.625875     -0.435371      0.338503
  O      -2.425630      0.310029     -1.676700
  H       2.474329     -1.191447      1.123650
  O       2.999618     -0.408769      1.335977
  H       2.698769      0.268032      0.715987
10
Coordinates from ORCA-job /home/rudenko/2025/kie/for_orca/ch3no2_h2o/orca/ts_opt/ts_opt E -321.455965325260
  C      -0.513226      0.295681     -0.354528
  H       0.101691     -0.242543     -1.068288
  H      -0.429127      1.369414     -0.522324
  H      -0.314737      0.061661      0.685651
  N      -1.966459      0.020680     -0.581292
  O      -2.610647     -0.474753      0.328796
  O      -2.433855      0.323511     -1.668378
  H       2.462169     -1.190311      1.158742
  O       3.012638     -0.413430      1.322617
  H       2.691553      0.250092      0.699004
10
Coordinates from ORCA-job /home/rudenko/2025/kie/for_orca/ch3no2_h2o/orca/ts_opt/ts_opt E -321.455945861896
  C      -0.511709      0.285642     -0.354805
  H       0.097999     -0.245498     -1.077872
  H      -0.426376      1.361232     -0.511255
  H      -0.309361      0.041927      0.682225
  N      -1.967604      0.023460     -0.580070
  O      -2.621783     -0.439241      0.339956
  O      -2.427442      0.306970     -1.675571
  H       2.471497     -1.191403      1.123039
  O       2.997019     -0.409640      1.337544
  H       2.697760      0.266552      0.716809
10
Coordinates from ORCA-job /home/rudenko/2025/kie/for_orca/ch3no2_h2o/orca/ts_opt/ts_opt E -321.456267540483
  C      -0.510887      0.286420     -0.356352
  H       0.087548     -0.246620     -1.087887
  H      -0.415578      1.362299     -0.503622
  H      -0.298534      0.030708      0.675605
  N      -1.966548      0.024112     -0.577599
  O      -2.622331     -0.419399      0.350780
  O      -2.424906      0.286820     -1.678845
  H       2.472934     -1.191499      1.093083
  O       2.978256     -0.409447      1.352365
  H       2.700046      0.276605      0.732471
10
Coordinates from ORCA-job /home/rudenko/2025/kie/for_orca/ch3no2_h2o/orca/ts_opt/ts_opt E -321.456036020825
  C      -0.512249      0.289791     -0.355824
  H       0.096419     -0.245317     -1.076984
  H      -0.424792      1.364888     -0.513313
  H      -0.308557      0.047328      0.681160
  N      -1.967177      0.022634     -0.580036
  O      -2.617308     -0.448587      0.338567
  O      -2.430122      0.308801     -1.673524
  H       2.468280     -1.191173      1.129200
  O       2.998965     -0.410691      1.336808
  H       2.696541      0.262324      0.713947
10
Coordinates from ORCA-job /home/rudenko/2025/kie/for_orca/ch3no2_h2o/orca/ts_opt/ts_opt E -321.455951542388
  C      -0.513796      0.297892     -0.355958
  H       0.102002     -0.243012     -1.067126
  H      -0.430424      1.371546     -0.524257
  H      -0.315661      0.067535      0.685118
  N      -1.966773      0.020139     -0.581726
  O      -2.607471     -0.482900      0.326604
  O      -2.437025      0.327327     -1.666359
  H       2.460782     -1.189463      1.165442
  O       3.016741     -0.414477      1.322007
  H       2.691624      0.245412      0.696254
10
Coordinates from ORCA-job /home/rudenko/2025/kie/for_orca/ch3no2_h2o/orca/ts_opt/ts_opt E -321.456098635492
  C      -0.515466      0.312591     -0.355790
  H       0.102623     -0.238683     -1.057680
  H      -0.431269      1.383679     -0.536862
  H      -0.318478      0.092032      0.687857
  N      -1.964485      0.016102     -0.582330
  O      -2.591450     -0.522787      0.315115
  O      -2.444645      0.339539     -1.657817
  H       2.449122     -1.187077      1.200249
  O       3.029301     -0.421619      1.307536
  H       2.684746      0.226222      0.679723
10
Coordinates from ORCA-job /home/rudenko/2025/kie/for_orca/ch3no2_h2o/orca/ts_opt/ts_opt E -321.456105124822
  C      -0.513915      0.302139     -0.356549
  H       0.098452     -0.242184     -1.068191
  H      -0.426442      1.375242     -0.525053
  H      -0.312817      0.069844      0.683606
  N      -1.965794      0.019345     -0.580992
  O      -2.603356     -0.487295      0.327634
  O      -2.438213      0.324159     -1.665326
  H       2.457711     -1.189619      1.164818
  O       3.013919     -0.415586      1.323362
  H       2.690454      0.243956      0.696693
10
Coordinates from ORCA-job /home/rudenko/2025/kie/for_orca/ch3no2_h2o/orca/ts_opt/ts_opt E -321.456438953208
  C      -0.513594      0.308727     -0.356860
  H       0.088478     -0.241671     -1.072868
  H      -0.416562      1.380900     -0.523608
  H      -0.302764      0.067460      0.679150
  N      -1.963483      0.018517     -0.578636
  O      -2.598541     -0.484873      0.333709
  O      -2.436972      0.311064     -1.665811
  H       2.453136     -1.191429      1.150555
  O       3.000946     -0.416286      1.330974
  H       2.689357      0.247590      0.703395
10
Coordinates from ORCA-job /home/rudenko/2025/kie/for_orca/ch3no2_h2o/orca/ts_opt/ts_opt E -321.455941793329
  C      -0.513778      0.305310     -0.357381
  H       0.103971     -0.241249     -1.061197
  H      -0.432055      1.378524     -0.532117
  H      -0.318318      0.082596      0.687292
  N      -1.965281      0.018021     -0.582267
  O      -2.597163     -0.505806      0.320534
  O      -2.442563      0.335402     -1.660846
  H       2.456445     -1.186973      1.184120
  O       3.021403     -0.418733      1.314485
  H       2.687340      0.232907      0.687377
10
Coordinates from ORCA-job /home/rudenko/2025/kie/for_orca/ch3no2_h2o/orca/ts_opt/ts_opt E -321.455703017643
  C      -0.514437      0.311370     -0.357599
  H       0.113732     -0.239936     -1.048409
  H      -0.442072      1.383615     -0.542626
  H      -0.327494      0.104657      0.691839
  N      -1.964756      0.015673     -0.584462
  O      -2.587592     -0.538177      0.306635
  O      -2.449430      0.355225     -1.652921
  H       2.451617     -1.183606      1.219990
  O       3.038575     -0.423330      1.298461
  H       2.681857      0.214509      0.669093
10
Coordinates from ORCA-job /home/rudenko/2025/kie/for_orca/ch3no2_h2o/orca/ts_opt/ts_opt E -321.455833659469
  C      -0.515020      0.327059     -0.356653
  H       0.117096     -0.235181     -1.035829
  H      -0.444939      1.396433     -0.555943
  H      -0.330178      0.132276      0.695522
  N      -1.961079      0.010861     -0.584901
  O      -2.569046     -0.578737      0.293585
  O      -2.456495      0.366143     -1.643192
  H       2.439597     -1.180310      1.254016
  O       3.047704     -0.432122      1.282189
  H       2.672360      0.193578      0.651205
10
Coordinates from ORCA-job /home/rudenko/2025/kie/for_orca/ch3no2_h2o/orca/ts_opt/ts_opt E -321.456087761359
  C      -0.514698      0.320882     -0.357000
  H       0.106240     -0.239023     -1.048137
  H      -0.434796      1.391369     -0.544871
  H      -0.319568      0.109878      0.689592
  N      -1.962146      0.013826     -0.582761
  O      -2.579240     -0.548585      0.307159
  O      -2.450080      0.349487     -1.650900
  H       2.443201     -1.184846      1.219224
  O       3.032573     -0.424947      1.299963
  H       2.678514      0.211959      0.667731
10
Coordinates from ORCA-job /home/rudenko/2025/kie/for_orca/ch3no2_h2o/orca/ts_opt/ts_opt E -321.456173622543
  C      -0.515312      0.336118     -0.355383
  H       0.110250     -0.233577     -1.034540
  H      -0.438788      1.403642     -0.558133
  H      -0.322981      0.137246      0.694162
  N      -1.958257      0.008949     -0.583432
  O      -2.561228     -0.587563      0.293945
  O      -2.456116      0.359643     -1.642053
  H       2.431777     -1.181961      1.253008
  O       3.041609     -0.434042      1.282599
  H       2.669046      0.191545      0.649827
10
Coordinates from ORCA-job /home/rudenko/2025/kie/for_orca/ch3no2_h2o/orca/ts_opt/ts_opt E -321.456392913234
  C      -0.514756      0.330240     -0.355953
  H       0.099105     -0.237609     -1.047394
  H      -0.427938      1.398859     -0.547649
  H      -0.311966      0.115069      0.688041
  N      -1.959169      0.011886     -0.581007
  O      -2.570739     -0.558743      0.307629
  O      -2.450030      0.343628     -1.648969
  H       2.434821     -1.185984      1.218377
  O       3.025878     -0.426874      1.300648
  H       2.674795      0.209530      0.666278
10
Coordinates from ORCA-job /home/rudenko/2025/kie/for_orca/ch3no2_h2o/orca/ts_opt/ts_opt E -321.456436357700
  C      -0.515575      0.344871     -0.354061
  H       0.103944     -0.231965     -1.033182
  H      -0.433169      1.410625     -0.560543
  H      -0.316190      0.142128      0.693183
  N      -1.955390      0.007135     -0.581959
  O      -2.553360     -0.596290      0.294215
  O      -2.455525      0.353547     -1.640875
  H       2.424231     -1.183249      1.252265
  O       3.035553     -0.436112      1.282716
  H       2.665481      0.189310      0.648240
10
Coordinates from ORCA-job /home/rudenko/2025/kie/for_orca/ch3no2_h2o/orca/ts_opt/ts_opt E -321.456690379765
  C      -0.514819      0.342471     -0.353898
  H       0.090425     -0.235517     -1.045464
  H      -0.420017      1.408477     -0.551907
  H      -0.302251      0.122341      0.686872
  N      -1.954989      0.009300     -0.578737
  O      -2.559487     -0.572460      0.307655
  O      -2.449154      0.336411     -1.646556
  H       2.423822     -1.187377      1.218153
  O       3.017072     -0.429749      1.300354
  H       2.669398      0.206103      0.663528
10
Coordinates from ORCA-job /home/rudenko/2025/kie/for_orca/ch3no2_h2o/orca/ts_opt/ts_opt E -321.456635478034
  C      -0.515640      0.354622     -0.353289
  H       0.098437     -0.229655     -1.031642
  H      -0.427949      1.418596     -0.563829
  H      -0.309676      0.147834      0.691675
  N      -1.952050      0.005125     -0.580204
  O      -2.543631     -0.606485      0.294731
  O      -2.455484      0.347283     -1.638902
  H       2.415966     -1.184525      1.252778
  O       3.029323     -0.438971      1.282323
  H       2.660705      0.186176      0.646360
10
Coordinates from ORCA-job /home/rudenko/2025/kie/for_orca/ch3no2_h2o/orca/ts_opt/ts_opt E -321.456672011846
  C      -0.516604      0.371501     -0.351432
  H       0.103704     -0.221997     -1.017133
  H      -0.433719      1.432338     -0.576963
  H      -0.313314      0.175879      0.696348
  N      -1.947117     -0.000301     -0.580874
  O      -2.522741     -0.643613      0.281890
  O      -2.461049      0.353359     -1.630699
  H       2.404654     -1.181130      1.286427
  O       3.037073     -0.450803      1.263348
  H       2.649114      0.164767      0.629088
10
Coordinates from ORCA-job /home/rudenko/2025/kie/for_orca/ch3no2_h2o/orca/ts_opt/ts_opt E -321.456859494497
  C      -0.518176      0.397134     -0.344538
  H       0.099610     -0.212182     -1.000267
  H      -0.433457      1.452003     -0.591820
  H      -0.307255      0.207516      0.702729
  N      -1.937978     -0.007710     -0.580024
  O      -2.493865     -0.685510      0.269175
  O      -2.461695      0.349410     -1.623839
  H       2.385727     -1.178493      1.314585
  O       3.033884     -0.465438      1.243312
  H       2.633205      0.143270      0.610686
10
Coordinates from ORCA-job /home/rudenko/2025/kie/for_orca/ch3no2_h2o/orca/ts_opt/ts_opt E -321.456824284657
  C      -0.518634      0.375719     -0.343161
  H       0.086470     -0.228981     -1.013176
  H      -0.418401      1.433381     -0.572808
  H      -0.302641      0.175580      0.702195
  N      -1.945994     -0.000303     -0.580824
  O      -2.523614     -0.651527      0.274788
  O      -2.454134      0.352489     -1.633757
  H       2.392807     -1.175530      1.284886
  O       3.031348     -0.446425      1.257583
  H       2.652792      0.165596      0.624274
