40
Coordinates from ORCA-job /home/rudenko/2025/kie/for_orca/m-clc6h4chno2ch3_piperidine/orca/ts_opt/ts_opt E -1303.193184432138
  C      -2.069395      2.453550      1.035308
  C      -2.077715      1.067334      1.111299
  C      -2.078550      0.281683     -0.045019
  C      -2.088997      0.923950     -1.285222
  C      -2.068914      2.308641     -1.340855
  C      -2.055627      3.095142     -0.197961
  H      -2.060026      3.043739      1.942770
  H      -2.071021      0.587477      2.080991
  H      -2.093889      0.355453     -2.202911
  Cl     -2.060359      3.091409     -2.913333
  H      -2.035592      4.173496     -0.270977
  C      -2.119937     -1.208250      0.111106
  C      -3.447599     -1.757711      0.600662
  H      -3.353898     -2.791895      0.928105
  H      -4.218231     -1.709111     -0.174576
  H      -3.780159     -1.159663      1.448470
  N      -1.563202     -1.953267     -0.977581
  O      -2.014042     -3.081064     -1.233801
  O      -0.561245     -1.512697     -1.571297
  N       1.820700     -0.531068      0.995954
  C       2.488128     -1.521743      0.098313
  C       3.697958     -0.907139     -0.588708
  C       3.319534      0.371176     -1.340051
  C       2.625135      1.361021     -0.402692
  C       1.427338      0.719762      0.279260
  H      -1.220964     -1.485678      1.036573
  H       2.757195     -2.380910      0.710702
  H       1.734598     -1.829455     -0.626633
  H       4.124442     -1.647019     -1.268589
  H       4.461630     -0.680686      0.162373
  H       4.209444      0.826854     -1.777875
  H       2.645110      0.121362     -2.165420
  H       2.278812      2.239365     -0.950618
  H       3.331411      1.711723      0.356769
  H       0.965661      1.379821      1.010734
  H       0.671277      0.426601     -0.446771
  H       2.451610     -0.295099      1.762223
  H      -0.607366     -1.338629      2.745297
  H       0.934024     -0.999964      1.435809
  O      -0.297278     -1.748510      1.928174
40
Coordinates from ORCA-job /home/rudenko/2025/kie/for_orca/m-clc6h4chno2ch3_piperidine/orca/ts_opt/ts_opt E -1303.192602695492
  C      -2.164810      2.446389      1.071700
  C      -2.128052      1.062486      1.130180
  C      -2.042867      0.293344     -0.033121
  C      -2.010534      0.948022     -1.265560
  C      -2.036418      2.332729     -1.303226
  C      -2.111655      3.102090     -0.150826
  H      -2.224865      3.024569      1.984934
  H      -2.157708      0.569789      2.092976
  H      -1.951218      0.391128     -2.188441
  Cl     -1.976915      3.137997     -2.863194
  H      -2.130581      4.178453     -0.207688
  C      -2.058918     -1.194668      0.116933
  C      -3.391227     -1.789060      0.536412
  H      -3.280732     -2.821423      0.864361
  H      -4.122910     -1.761143     -0.276661
  H      -3.785363     -1.206567      1.368514
  N      -1.432801     -1.920998     -0.946559
  O      -1.839925     -3.060203     -1.224530
  O      -0.417199     -1.451467     -1.492983
  N       1.813443     -0.517906      1.003700
  C       2.426858     -1.538045      0.100519
  C       3.632528     -0.966403     -0.629147
  C       3.267452      0.311894     -1.386783
  C       2.627651      1.334118     -0.445352
  C       1.432087      0.737547      0.280053
  H      -1.197803     -1.439862      1.082215
  H       2.689667     -2.396478      0.716649
  H       1.644562     -1.833926     -0.598428
  H       4.018615     -1.726338     -1.311042
  H       4.423596     -0.751923      0.096668
  H       4.156588      0.736541     -1.856226
  H       2.562693      0.069656     -2.188733
  H       2.290650      2.213763     -0.996981
  H       3.364597      1.675713      0.288694
  H       1.010785      1.424142      1.014772
  H       0.646022      0.456291     -0.418308
  H       2.473215     -0.291479      1.748223
  H      -0.634163     -1.172065      2.791800
  H       0.927007     -0.953861      1.474996
  O      -0.311351     -1.652847      2.019487
40
Coordinates from ORCA-job /home/rudenko/2025/kie/for_orca/m-clc6h4chno2ch3_piperidine/orca/ts_opt/ts_opt E -1303.193178099012
  C      -2.085525      2.452063      1.042700
  C      -2.092022      1.065767      1.114939
  C      -2.085177      0.283047     -0.043355
  C      -2.090595      0.928357     -1.282022
  C      -2.071707      2.313274     -1.333844
  C      -2.065455      3.096711     -0.188783
  H      -2.081924      3.039899      1.951725
  H      -2.089829      0.583409      2.083372
  H      -2.088701      0.362271     -2.201199
  Cl     -2.054337      3.100387     -2.904080
  H      -2.045757      4.175203     -0.258623
  C      -2.121526     -1.207242      0.110595
  C      -3.446541     -1.763901      0.599309
  H      -3.347425     -2.798122      0.924979
  H      -4.217785     -1.717902     -0.175462
  H      -3.781714     -1.169042      1.448342
  N      -1.561499     -1.949080     -0.978706
  O      -2.005806     -3.079607     -1.234092
  O      -0.563966     -1.502004     -1.574882
  N       1.822674     -0.528470      0.992453
  C       2.489466     -1.523740      0.099470
  C       3.701872     -0.913869     -0.587142
  C       3.327543      0.362804     -1.343336
  C       2.633202      1.357273     -0.410785
  C       1.432757      0.720864      0.270956
  H      -1.222132     -1.480079      1.037151
  H       2.755674     -2.381278      0.715432
  H       1.736776     -1.832433     -0.625748
  H       4.128116     -1.656824     -1.263799
  H       4.464585     -0.686601      0.164691
  H       4.219320      0.815247     -1.780707
  H       2.654386      0.111681     -2.169329
  H       2.289789      2.234410     -0.962445
  H       3.338629      1.709130      0.348936
  H       0.970988      1.384557      0.999256
  H       0.677509      0.426730     -0.455324
  H       2.453279     -0.291231      1.758506
  H      -0.611435     -1.313459      2.743953
  H       0.934537     -0.993596      1.433827
  O      -0.300242     -1.734604      1.933072
40
Coordinates from ORCA-job /home/rudenko/2025/kie/for_orca/m-clc6h4chno2ch3_piperidine/orca/ts_opt/ts_opt E -1303.193167616659
  C      -2.076385      2.452612      1.021931
  C      -2.083698      1.066758      1.102871
  C      -2.078081      0.276537     -0.050450
  C      -2.082455      0.914247     -1.293092
  C      -2.062987      2.298841     -1.353610
  C      -2.056906      3.089540     -0.213596
  H      -2.073360      3.046149      1.927246
  H      -2.083862      0.590636      2.074364
  H      -2.082152      0.342551     -2.208718
  Cl     -2.046512      3.076077     -2.928784
  H      -2.038542      4.167732     -0.290245
  C      -2.121193     -1.212744      0.113415
  C      -3.447334     -1.759678      0.610024
  H      -3.352107     -2.792386      0.941530
  H      -4.221160     -1.714460     -0.162195
  H      -3.776440     -1.158163      1.456734
  N      -1.569051     -1.965214     -0.972709
  O      -2.018617     -3.096249     -1.216406
  O      -0.571758     -1.527663     -1.576275
  N       1.825638     -0.537158      0.996049
  C       2.475702     -1.520806      0.078203
  C       3.687555     -0.908217     -0.606929
  C       3.318017      0.386193     -1.334810
  C       2.640524      1.368346     -0.377125
  C       1.440397      0.729275      0.302685
  H      -1.220990     -1.485185      1.039927
  H       2.739513     -2.392371      0.675219
  H       1.714179     -1.808820     -0.646313
  H       4.101399     -1.641460     -1.301632
  H       4.458641     -0.702355      0.142522
  H       4.210000      0.839336     -1.771030
  H       2.635643      0.157078     -2.159635
  H       2.300232      2.259024     -0.908649
  H       3.355543      1.699146      0.383091
  H       0.991352      1.382285      1.048321
  H       0.675951      0.456072     -0.422204
  H       2.465227     -0.320278      1.760728
  H      -0.610145     -1.314467      2.746088
  H       0.937610     -1.002146      1.436835
  O      -0.299388     -1.738616      1.936623
40
Coordinates from ORCA-job /home/rudenko/2025/kie/for_orca/m-clc6h4chno2ch3_piperidine/orca/ts_opt/ts_opt E -1303.193155504116
  C      -2.113812      2.456302      1.048193
  C      -2.109083      1.069837      1.117736
  C      -2.091385      0.289149     -0.041990
  C      -2.096087      0.937018     -1.279369
  C      -2.089050      2.322192     -1.328429
  C      -2.094879      3.103534     -0.181997
  H      -2.119541      3.042356      1.958355
  H      -2.108694      0.585806      2.085311
  H      -2.086081      0.372953     -2.199637
  Cl     -2.072413      3.112425     -2.897113
  H      -2.085895      4.182441     -0.249720
  C      -2.120585     -1.201660      0.109978
  C      -3.442376     -1.765218      0.599757
  H      -3.337730     -2.799563      0.923100
  H      -4.215276     -1.721229     -0.173453
  H      -3.778802     -1.173839      1.450733
  N      -1.558785     -1.940081     -0.980813
  O      -1.997316     -3.073069     -1.235467
  O      -0.566960     -1.486134     -1.581243
  N       1.828960     -0.531312      0.988958
  C       2.496264     -1.530680      0.101004
  C       3.711745     -0.924916     -0.583843
  C       3.341809      0.350362     -1.344607
  C       2.646431      1.348769     -0.417012
  C       1.442962      0.716439      0.263054
  H      -1.220046     -1.473013      1.036429
  H       2.759111     -2.386710      0.720515
  H       1.745058     -1.840180     -0.625372
  H       4.138406     -1.670450     -1.257377
  H       4.472895     -0.697133      0.169440
  H       4.235695      0.800071     -1.780479
  H       2.670719      0.098258     -2.171987
  H       2.306335      2.224967     -0.972188
  H       3.350182      1.701336      0.343872
  H       0.980851      1.382591      0.988805
  H       0.688819      0.421586     -0.464244
  H       2.458265     -0.293066      1.755697
  H      -0.609566     -1.294521      2.741062
  H       0.938972     -0.991943      1.430235
  O      -0.299118     -1.723674      1.934109
40
Coordinates from ORCA-job /home/rudenko/2025/kie/for_orca/m-clc6h4chno2ch3_piperidine/orca/ts_opt/ts_opt E -1303.192669616390
  C      -2.098978      2.442217      0.996285
  C      -2.099955      1.058375      1.083609
  C      -2.084803      0.261806     -0.065520
  C      -2.084821      0.891498     -1.311784
  C      -2.074206      2.275687     -1.378544
  C      -2.078648      3.071457     -0.242190
  H      -2.101249      3.040530      1.898446
  H      -2.102726      0.587743      2.057651
  H      -2.073506      0.315190     -2.224177
  Cl     -2.051468      3.045340     -2.957258
  H      -2.069617      4.148038     -0.322463
  C      -2.126802     -1.222770      0.118588
  C      -3.445012     -1.771067      0.636393
  H      -3.338899     -2.798997      0.977888
  H      -4.227940     -1.739117     -0.127149
  H      -3.768918     -1.163256      1.480760
  N      -1.591753     -1.987606     -0.967711
  O      -2.047875     -3.119078     -1.198353
  O      -0.640612     -1.531899     -1.629100
  N       1.840630     -0.553907      0.990079
  C       2.457322     -1.522153      0.033895
  C       3.679202     -0.916005     -0.639684
  C       3.336624      0.412761     -1.317344
  C       2.692575      1.378465     -0.320566
  C       1.481380      0.748443      0.346963
  H      -1.220670     -1.477955      1.048557
  H       2.703809     -2.419291      0.599930
  H       1.682915     -1.765462     -0.691929
  H       4.067160     -1.633206     -1.365261
  H       4.463038     -0.758321      0.108592
  H       4.236561      0.858389     -1.744908
  H       2.641879      0.231985     -2.143853
  H       2.373475      2.296138     -0.818126
  H       3.421315      1.661617      0.445267
  H       1.058773      1.386789      1.122024
  H       0.701754      0.522032     -0.377855
  H       2.495084     -0.384208      1.752838
  H      -0.633386     -1.188960      2.740904
  H       0.943910     -1.000781      1.431748
  O      -0.315565     -1.680460      1.973362
40
Coordinates from ORCA-job /home/rudenko/2025/kie/for_orca/m-clc6h4chno2ch3_piperidine/orca/ts_opt/ts_opt E -1303.193164651603
  C      -2.084618      2.454859      1.020951
  C      -2.089452      1.069018      1.103059
  C      -2.070789      0.277569     -0.049408
  C      -2.063719      0.914429     -1.292537
  C      -2.047792      2.299055     -1.354068
  C      -2.055196      3.090921     -0.214917
  H      -2.091412      3.049111      1.925772
  H      -2.097873      0.593890      2.075007
  H      -2.052215      0.342146     -2.207638
  Cl     -2.017598      3.074780     -2.929789
  H      -2.039845      4.169181     -0.292488
  C      -2.112872     -1.211632      0.116032
  C      -3.440565     -1.758809      0.608652
  H      -3.345752     -2.791132      0.941313
  H      -4.211861     -1.714717     -0.166157
  H      -3.772987     -1.156998      1.453865
  N      -1.553915     -1.965378     -0.965621
  O      -1.999135     -3.098374     -1.208539
  O      -0.554977     -1.526484     -1.565439
  N       1.823376     -0.539766      0.996911
  C       2.466749     -1.522394      0.073408
  C       3.675846     -0.910104     -0.616914
  C       3.304564      0.386896     -1.339379
  C       2.633279      1.367601     -0.375828
  C       1.435983      0.728338      0.308494
  H      -1.216967     -1.483724      1.045620
  H       2.732225     -2.395775      0.667009
  H       1.700498     -1.807286     -0.647556
  H       4.084228     -1.642167     -1.316069
  H       4.451731     -0.707916      0.128580
  H       4.195019      0.839926     -1.778799
  H       2.617752      0.161272     -2.161505
  H       2.291673      2.260151     -0.903315
  H       3.352489      1.695135      0.381739
  H       0.991826      1.379666      1.058361
  H       0.667135      0.457699     -0.413161
  H       2.467180     -0.325923      1.758815
  H      -0.610298     -1.312244      2.751564
  H       0.936697     -1.003254      1.440856
  O      -0.298411     -1.737565      1.943118
40
Coordinates from ORCA-job /home/rudenko/2025/kie/for_orca/m-clc6h4chno2ch3_piperidine/orca/ts_opt/ts_opt E -1303.193149921811
  C      -2.101525      2.456779      1.026577
  C      -2.101456      1.070757      1.105232
  C      -2.078987      0.282039     -0.049121
  C      -2.073080      0.922112     -1.290628
  C      -2.062422      2.306942     -1.348677
  C      -2.073556      3.096072     -0.207684
  H      -2.110935      3.048691      1.932909
  H      -2.108885      0.593302      2.076076
  H      -2.058326      0.352316     -2.207158
  Cl     -2.033872      3.086507     -2.922563
  H      -2.062303      4.174541     -0.282612
  C      -2.115376     -1.207508      0.113856
  C      -3.440260     -1.760160      0.607992
  H      -3.341054     -2.792711      0.938674
  H      -4.213183     -1.717481     -0.165278
  H      -3.773259     -1.161169      1.454913
  N      -1.555374     -1.958780     -0.968704
  O      -1.992647     -3.096048     -1.206258
  O      -0.555275     -1.518929     -1.565896
  N       1.827661     -0.540337      0.993728
  C       2.474267     -1.526665      0.076436
  C       3.685819     -0.917002     -0.611989
  C       3.317331      0.377462     -1.340442
  C       2.642587      1.361879     -0.383061
  C       1.442765      0.725189      0.299203
  H      -1.217618     -1.478892      1.043775
  H       2.737690     -2.397629      0.674498
  H       1.710585     -1.814378     -0.646010
  H       4.096281     -1.651607     -1.307261
  H       4.459399     -0.712476      0.135260
  H       4.209501      0.828811     -1.778131
  H       2.633623      0.149065     -2.164379
  H       2.303216      2.252536     -0.915156
  H       3.359021      1.691949      0.376055
  H       0.996012      1.379225      1.045268
  H       0.676553      0.451976     -0.424095
  H       2.468986     -0.323713      1.756933
  H      -0.611377     -1.300901      2.748350
  H       0.938957     -1.001283      1.437218
  O      -0.299485     -1.730479      1.942153
40
Coordinates from ORCA-job /home/rudenko/2025/kie/for_orca/m-clc6h4chno2ch3_piperidine/orca/ts_opt/ts_opt E -1303.193161427828
  C      -2.113575      2.460200      1.039730
  C      -2.106862      1.073825      1.113222
  C      -2.084742      0.289664     -0.044169
  C      -2.083774      0.934520     -1.283198
  C      -2.079538      2.319599     -1.336112
  C      -2.092181      3.104462     -0.192178
  H      -2.123919      3.048559      1.948362
  H      -2.109772      0.592590      2.082294
  H      -2.069461      0.368196     -2.201977
  Cl     -2.059271      3.105131     -2.907195
  H      -2.086988      4.183272     -0.263295
  C      -2.116111     -1.200612      0.112015
  C      -3.439263     -1.759289      0.603986
  H      -3.337289     -2.793404      0.928987
  H      -4.212945     -1.714298     -0.168408
  H      -3.773000     -1.165656      1.454336
  N      -1.552960     -1.945118     -0.973398
  O      -1.994980     -3.077536     -1.225154
  O      -0.558312     -1.496328     -1.573303
  N       1.828976     -0.536896      0.991156
  C       2.490353     -1.531343      0.093348
  C       3.703087     -0.922679     -0.593828
  C       3.331415      0.358548     -1.343779
  C       2.641390      1.351439     -0.406221
  C       1.440670      0.715447      0.275269
  H      -1.217191     -1.475112      1.039714
  H       2.755063     -2.391885      0.705726
  H       1.734872     -1.834890     -0.631313
  H       4.124719     -1.664156     -1.274990
  H       4.468774     -0.701688      0.156817
  H       4.224010      0.810196     -1.780299
  H       2.656520      0.113309     -2.170132
  H       2.299771      2.231797     -0.953794
  H       3.349069      1.697882      0.353874
  H       0.982712      1.376593      1.008164
  H       0.682722      0.426038     -0.450443
  H       2.461891     -0.304265      1.756754
  H      -0.607033     -1.313547      2.744141
  H       0.939793     -0.998793      1.432876
  O      -0.296640     -1.733771      1.932416
40
Coordinates from ORCA-job /home/rudenko/2025/kie/for_orca/m-clc6h4chno2ch3_piperidine/orca/ts_opt/ts_opt E -1303.193161838359
  C      -2.100965      2.458311      1.024296
  C      -2.099947      1.072357      1.104592
  C      -2.076852      0.282331     -0.048868
  C      -2.069819      0.921032     -1.291050
  C      -2.060067      2.305812     -1.350709
  C      -2.072997      3.096334     -0.210697
  H      -2.111577      3.051198      1.929981
  H      -2.107784      0.596001      2.075991
  H      -2.054331      0.350151     -2.206970
  Cl     -2.031307      3.083490     -2.925553
  H      -2.063175      4.174757     -0.287028
  C      -2.113956     -1.206896      0.115061
  C      -3.439062     -1.758376      0.610054
  H      -3.340571     -2.791039      0.940580
  H      -4.212560     -1.714924     -0.162613
  H      -3.770899     -1.159128      1.457244
  N      -1.553743     -1.958872     -0.966650
  O      -1.996625     -3.092883     -1.209789
  O      -0.557629     -1.516408     -1.568803
  N       1.827636     -0.541787      0.994728
  C       2.474244     -1.526892      0.076130
  C       3.684763     -0.915784     -0.612822
  C       3.314893      0.379106     -1.339825
  C       2.640006      1.362168     -0.381140
  C       1.441219      0.723853      0.301451
  H      -1.216011     -1.479913      1.044715
  H       2.738788     -2.398190      0.673192
  H       1.710176     -1.814571     -0.645982
  H       4.095066     -1.649508     -1.309123
  H       4.458863     -0.711441      0.133922
  H       4.206506      0.831501     -1.777572
  H       2.630924      0.150996     -2.163624
  H       2.299543      2.253005     -0.912217
  H       3.356721      1.692173      0.377750
  H       0.994425      1.376762      1.048445
  H       0.674748      0.450477     -0.421596
  H       2.469083     -0.325195      1.757844
  H      -0.609476     -1.310943      2.748899
  H       0.939480     -1.003677      1.437844
  O      -0.297733     -1.735387      1.939913
40
Coordinates from ORCA-job /home/rudenko/2025/kie/for_orca/m-clc6h4chno2ch3_piperidine/orca/ts_opt/ts_opt E -1303.193151336918
  C      -2.118047      2.462260      1.028422
  C      -2.109199      1.076205      1.106689
  C      -2.079778      0.287788     -0.047876
  C      -2.072598      0.928589     -1.288997
  C      -2.071191      2.313515     -1.346559
  C      -2.091828      3.102425     -0.205581
  H      -2.134258      3.053630      1.935020
  H      -2.117008      0.598484      2.077436
  H      -2.051922      0.359321     -2.205787
  Cl     -2.044094      3.093493     -2.920362
  H      -2.089502      4.181046     -0.280482
  C      -2.111590     -1.201593      0.114127
  C      -3.434609     -1.758496      0.608876
  H      -3.332273     -2.791411      0.937393
  H      -4.208768     -1.716286     -0.163221
  H      -3.768061     -1.162105      1.457406
  N      -1.547842     -1.951118     -0.966909
  O      -1.986610     -3.086735     -1.210789
  O      -0.553748     -1.504382     -1.569538
  N       1.830588     -0.544336      0.993049
  C       2.479126     -1.532372      0.078971
  C       3.690570     -0.923003     -0.609907
  C       3.321701      0.369614     -1.341463
  C       2.644566      1.355536     -0.387245
  C       1.444782      0.718843      0.295088
  H      -1.213144     -1.474965      1.045618
  H       2.743015     -2.401484      0.679487
  H       1.716453     -1.822827     -0.643535
  H       4.101948     -1.658703     -1.303495
  H       4.463601     -0.716451      0.137315
  H       4.214112      0.820962     -1.778674
  H       2.639581      0.138902     -2.166063
  H       2.304976      2.244586     -0.921831
  H       3.359687      1.688042      0.372070
  H       0.996549      1.373625      1.039617
  H       0.679611      0.442767     -0.428381
  H       2.470481     -0.325079      1.756742
  H      -0.609221     -1.303969      2.747578
  H       0.941418     -1.003647      1.436022
  O      -0.297472     -1.730669      1.939770
40
Coordinates from ORCA-job /home/rudenko/2025/kie/for_orca/m-clc6h4chno2ch3_piperidine/orca/ts_opt/ts_opt E -1303.193188048286
  C      -2.163707      2.464662      1.022233
  C      -2.135738      1.080481      1.096714
  C      -2.068351      0.293841     -0.058346
  C      -2.035811      0.937762     -1.297179
  C      -2.056518      2.322414     -1.350377
  C      -2.119538      3.107993     -0.208800
  H      -2.209816      3.052620      1.930077
  H      -2.161302      0.601001      2.066356
  H      -1.980976      0.372178     -2.214474
  Cl     -2.002009      3.106484     -2.922051
  H      -2.137961      4.184796     -0.280553
  C      -2.094994     -1.190099      0.111490
  C      -3.409152     -1.762236      0.614070
  H      -3.290579     -2.791856      0.946734
  H      -4.186871     -1.734755     -0.155498
  H      -3.748948     -1.167685      1.461194
  N      -1.518495     -1.949907     -0.947122
  O      -1.928510     -3.104833     -1.158837
  O      -0.531513     -1.499547     -1.562576
  N       1.831682     -0.568353      0.984308
  C       2.463413     -1.548496      0.050412
  C       3.673239     -0.937520     -0.640203
  C       3.310718      0.371622     -1.344872
  C       2.649334      1.348946     -0.370563
  C       1.448985      0.712256      0.310247
  H      -1.190616     -1.460410      1.079683
  H       2.726918     -2.427268      0.636929
  H       1.692249     -1.822868     -0.668769
  H       4.067726     -1.663784     -1.353318
  H       4.458208     -0.754620      0.100692
  H       4.204924      0.822227     -1.779307
  H       2.621684      0.163156     -2.169587
  H       2.316325      2.249672     -0.889274
  H       3.372503      1.660881      0.389769
  H       1.013836      1.359007      1.071776
  H       0.674601      0.453642     -0.409652
  H       2.480238     -0.369653      1.745906
  H      -0.648165     -1.213344      2.753735
  H       0.937598     -1.010292      1.431219
  O      -0.324612     -1.688118      1.977812
40
Coordinates from ORCA-job /home/rudenko/2025/kie/for_orca/m-clc6h4chno2ch3_piperidine/orca/ts_opt/ts_opt E -1303.193161359137
  C      -2.109480      2.459564      1.021169
  C      -2.106047      1.073722      1.101814
  C      -2.079683      0.283112     -0.051363
  C      -2.071448      0.921625     -1.293677
  C      -2.064450      2.306399     -1.353592
  C      -2.080791      3.097352     -0.213940
  H      -2.122326      3.052582      1.926747
  H      -2.114314      0.597753      2.073415
  H      -2.052716      0.350664     -2.209415
  Cl     -2.034186      3.083526     -2.928770
  H      -2.073094      4.175703     -0.290613
  C      -2.114362     -1.205528      0.113922
  C      -3.436982     -1.759732      0.612544
  H      -3.335069     -2.791775      0.943895
  H      -4.212343     -1.719127     -0.158475
  H      -3.768622     -1.160565      1.459844
  N      -1.552935     -1.958968     -0.964671
  O      -1.989885     -3.097064     -1.201046
  O      -0.558074     -1.515960     -1.569154
  N       1.830592     -0.545632      0.993875
  C       2.472536     -1.529137      0.070310
  C       3.683859     -0.918974     -0.618159
  C       3.317492      0.380587     -1.338555
  C       2.647266      1.361786     -0.374663
  C       1.447273      0.724507      0.306666
  H      -1.213129     -1.477542      1.048917
  H       2.735563     -2.403474      0.663606
  H       1.706430     -1.811619     -0.651552
  H       4.089871     -1.650872     -1.318893
  H       4.460438     -0.721185      0.127781
  H       4.210213      0.831881     -1.775203
  H       2.631829      0.158858     -2.162675
  H       2.309375      2.256124     -0.901451
  H       3.366091      1.685793      0.384812
  H       1.003739      1.375535      1.057356
  H       0.678994      0.456647     -0.416383
  H       2.473912     -0.334664      1.756931
  H      -0.615050     -1.298280      2.748338
  H       0.941091     -1.004532      1.436938
  O      -0.301577     -1.729090      1.943368
40
Coordinates from ORCA-job /home/rudenko/2025/kie/for_orca/m-clc6h4chno2ch3_piperidine/orca/ts_opt/ts_opt E -1303.193164855325
  C      -2.099040      2.458052      1.021188
  C      -2.098758      1.072146      1.102558
  C      -2.076306      0.281206     -0.050286
  C      -2.069119      0.919014     -1.292970
  C      -2.058860      2.303723     -1.353686
  C      -2.071103      3.095163     -0.214285
  H      -2.109061      3.051606      1.926444
  H      -2.106377      0.596492      2.074324
  H      -2.054032      0.347439     -2.208434
  Cl     -2.030134      3.080144     -2.929178
  H      -2.060635      4.173485     -0.291512
  C      -2.113776     -1.207793      0.114555
  C      -3.438460     -1.759070      0.610646
  H      -3.339758     -2.791495      0.941909
  H      -4.212375     -1.716338     -0.161689
  H      -3.769978     -1.159203      1.457513
  N      -1.552930     -1.960992     -0.965190
  O      -1.993560     -3.096735     -1.204913
  O      -0.556278     -1.519395     -1.567339
  N       1.827833     -0.542244      0.995888
  C       2.470336     -1.526153      0.073098
  C       3.680649     -0.915722     -0.616843
  C       3.312319      0.382353     -1.338968
  C       2.641706      1.363993     -0.375822
  C       1.442842      0.726325      0.307189
  H      -1.214592     -1.479930      1.046435
  H       2.734459     -2.399639      0.667146
  H       1.704022     -1.810184     -0.648018
  H       4.087381     -1.648283     -1.316453
  H       4.457144     -0.715683      0.128591
  H       4.204136      0.834023     -1.777048
  H       2.626201      0.158539     -2.162153
  H       2.302201      2.257268     -0.903400
  H       3.360761      1.689951      0.382592
  H       0.998865      1.378013      1.056985
  H       0.674436      0.456805     -0.415282
  H       2.471209     -0.329434      1.758418
  H      -0.611961     -1.309535      2.748540
  H       0.939659     -1.003286      1.439135
  O      -0.299065     -1.734628      1.940314
40
Coordinates from ORCA-job /home/rudenko/2025/kie/for_orca/m-clc6h4chno2ch3_piperidine/orca/ts_opt/ts_opt E -1303.193169881233
  C      -2.103072      2.458435      1.020232
  C      -2.102297      1.072590      1.101689
  C      -2.076900      0.281389     -0.051034
  C      -2.067300      0.919170     -1.293738
  C      -2.057558      2.303877     -1.354477
  C      -2.072662      3.095463     -0.215218
  H      -2.115252      3.052021      1.925447
  H      -2.111857      0.597112      2.073513
  H      -2.049642      0.347571     -2.209123
  Cl     -2.025564      3.080131     -2.930033
  H      -2.062606      4.173769     -0.292513
  C      -2.114061     -1.207281      0.114276
  C      -3.437707     -1.759345      0.612302
  H      -3.337699     -2.791483      0.943981
  H      -4.212593     -1.717741     -0.159157
  H      -3.768863     -1.159370      1.459241
  N      -1.552851     -1.961288     -0.963880
  O      -1.991490     -3.098576     -1.201130
  O      -0.557263     -1.519247     -1.567947
  N       1.828609     -0.543899      0.995085
  C       2.469928     -1.526926      0.070534
  C       3.680243     -0.916245     -0.619219
  C       3.312624      0.383362     -1.338915
  C       2.643173      1.363997     -0.373933
  C       1.444129      0.726140      0.308519
  H      -1.212734     -1.479648      1.049219
  H       2.733942     -2.401333      0.663278
  H       1.703021     -1.809490     -0.650488
  H       4.085695     -1.647925     -1.320496
  H       4.457590     -0.718311      0.125885
  H       4.204677      0.835063     -1.776493
  H       2.626073      0.161580     -2.162285
  H       2.304257      2.258383     -0.899989
  H       3.362774      1.688084      0.384765
  H       1.001005      1.376909      1.059626
  H       0.675227      0.458202     -0.413941
  H       2.472520     -0.332827      1.757633
  H      -0.614681     -1.305512      2.748634
  H       0.940191     -1.003995      1.438290
  O      -0.301026     -1.732804      1.941858
40
Coordinates from ORCA-job /home/rudenko/2025/kie/for_orca/m-clc6h4chno2ch3_piperidine/orca/ts_opt/ts_opt E -1303.193165656965
  C      -2.092474      2.455497      1.022059
  C      -2.096341      1.069609      1.102869
  C      -2.078346      0.279247     -0.050337
  C      -2.072935      0.917312     -1.292848
  C      -2.058095      2.301989     -1.353050
  C      -2.064633      3.092890     -0.213200
  H      -2.098290      3.048759      1.927543
  H      -2.102589      0.593500      2.074411
  H      -2.061372      0.345983     -2.208541
  Cl     -2.029899      3.079037     -2.928195
  H      -2.049667      4.171127     -0.289907
  C      -2.116621     -1.209889      0.114270
  C      -3.441689     -1.760366      0.610178
  H      -3.343747     -2.792928      0.941239
  H      -4.215538     -1.716872     -0.162137
  H      -3.772690     -1.160373      1.457171
  N      -1.557436     -1.962773     -0.967348
  O      -1.999602     -3.097526     -1.207942
  O      -0.561220     -1.521338     -1.569922
  N       1.827469     -0.539404      0.996289
  C       2.471323     -1.523902      0.075070
  C       3.681819     -0.913574     -0.614673
  C       3.313229      0.383405     -1.338631
  C       2.641435      1.365774     -0.377075
  C       1.442391      0.728230      0.305800
  H      -1.218019     -1.480860      1.043636
  H       2.735529     -2.396561      0.670304
  H       1.705761     -1.809234     -0.646255
  H       4.089634     -1.646728     -1.313036
  H       4.457565     -0.712073      0.131154
  H       4.205053      0.835062     -1.776720
  H       2.627740      0.158170     -2.161952
  H       2.301777      2.258260     -0.905910
  H       3.359802      1.693033      0.381445
  H       0.997229      1.380812      1.054164
  H       0.674878      0.457520     -0.417019
  H       2.470321     -0.325379      1.758901
  H      -0.611855     -1.309281      2.748212
  H       0.938983     -1.001430      1.439765
  O      -0.298879     -1.734723      1.940218
40
Coordinates from ORCA-job /home/rudenko/2025/kie/for_orca/m-clc6h4chno2ch3_piperidine/orca/ts_opt/ts_opt E -1303.193166775704
  C      -2.092328      2.455694      1.022638
  C      -2.096130      1.069794      1.103304
  C      -2.075370      0.279481     -0.049936
  C      -2.066969      0.917716     -1.292352
  C      -2.052342      2.302413     -1.352370
  C      -2.061866      3.093231     -0.212491
  H      -2.100555      3.048853      1.928173
  H      -2.104932      0.593621      2.074786
  H      -2.053325      0.346508     -2.208077
  Cl     -2.020880      3.079609     -2.927395
  H      -2.047210      4.171515     -0.289092
  C      -2.114590     -1.209637      0.114509
  C      -3.440073     -1.759672      0.609811
  H      -3.342707     -2.792384      0.940536
  H      -4.213660     -1.715555     -0.162739
  H      -3.771098     -1.159838      1.456914
  N      -1.554527     -1.962957     -0.966225
  O      -1.996296     -3.097976     -1.206491
  O      -0.557546     -1.521970     -1.567921
  N       1.825735     -0.539534      0.996391
  C       2.469970     -1.523948      0.075364
  C       3.679392     -0.912843     -0.615571
  C       3.309213      0.383496     -1.339858
  C       2.636919      1.365664     -0.378444
  C       1.438891      0.727207      0.305324
  H      -1.216624     -1.481190      1.044535
  H       2.735481     -2.395939      0.670989
  H       1.704191     -1.810539     -0.645297
  H       4.087224     -1.645952     -1.313972
  H       4.455586     -0.710433      0.129531
  H       4.200424      0.835811     -1.778515
  H       2.623589      0.157302     -2.162805
  H       2.296117      2.257548     -0.907547
  H       3.355319      1.693982      0.379579
  H       0.993324      1.379661      1.053502
  H       0.671328      0.455136     -0.417027
  H       2.468717     -0.324436      1.758589
  H      -0.611927     -1.311522      2.748828
  H       0.938049     -1.001875      1.440306
  O      -0.298515     -1.736041      1.940515
40
Coordinates from ORCA-job /home/rudenko/2025/kie/for_orca/m-clc6h4chno2ch3_piperidine/orca/ts_opt/ts_opt E -1303.193168873690
  C      -2.090733      2.454732      1.023686
  C      -2.096173      1.068820      1.103693
  C      -2.076572      0.279038     -0.049923
  C      -2.068156      0.917807     -1.292055
  C      -2.051808      2.302514     -1.351415
  C      -2.059754      3.092790     -0.211148
  H      -2.097818      3.047469      1.929505
  H      -2.104954      0.592193      2.074957
  H      -2.055404      0.347017     -2.208045
  Cl     -2.019825      3.080419     -2.926075
  H      -2.043373      4.171060     -0.287214
  C      -2.116102     -1.210103      0.114156
  C      -3.441354     -1.759975      0.610211
  H      -3.343974     -2.792802      0.940559
  H      -4.215469     -1.715444     -0.161781
  H      -3.771642     -1.160321      1.457721
  N      -1.556907     -1.963499     -0.967085
  O      -1.999380     -3.098217     -1.207337
  O      -0.560156     -1.522820     -1.569332
  N       1.825475     -0.538378      0.995963
  C       2.471368     -1.523239      0.076583
  C       3.680946     -0.911927     -0.613913
  C       3.310513      0.383405     -1.339863
  C       2.636515      1.366034     -0.380119
  C       1.438306      0.727304      0.303088
  H      -1.217724     -1.481553      1.043400
  H       2.737088     -2.394354      0.673398
  H       1.706508     -1.811267     -0.644455
  H       4.089929     -1.645446     -1.311216
  H       4.456338     -0.708198      0.131662
  H       4.201832      0.835942     -1.778079
  H       2.625888      0.155868     -2.163269
  H       2.295537      2.257097     -0.910493
  H       3.353904      1.695714      0.378281
  H       0.991250      1.380276      1.049940
  H       0.671867      0.453763     -0.419820
  H       2.467643     -0.321894      1.758454
  H      -0.612491     -1.312230      2.748017
  H       0.937674     -1.001218      1.439755
  O      -0.298811     -1.736377      1.939608
40
Coordinates from ORCA-job /home/rudenko/2025/kie/for_orca/m-clc6h4chno2ch3_piperidine/orca/ts_opt/ts_opt E -1303.193170209708
  C      -2.090236      2.454500      1.024527
  C      -2.096209      1.068575      1.104197
  C      -2.075798      0.279042     -0.049593
  C      -2.065946      0.918109     -1.291554
  C      -2.049070      2.302830     -1.350562
  C      -2.057862      3.092848     -0.210127
  H      -2.098021      3.047016      1.930485
  H      -2.106119      0.591730      2.075341
  H      -2.052520      0.347538     -2.207671
  Cl     -2.015331      3.081093     -2.925015
  H      -2.041019      4.171135     -0.285924
  C      -2.115860     -1.210099      0.114196
  C      -3.441226     -1.759717      0.610218
  H      -3.344117     -2.792680      0.940204
  H      -4.215420     -1.714690     -0.161667
  H      -3.771244     -1.160255      1.457969
  N      -1.556676     -1.963549     -0.966997
  O      -1.999410     -3.098129     -1.207432
  O      -0.559567     -1.523167     -1.568870
  N       1.824596     -0.537903      0.995778
  C       2.471535     -1.522988      0.077378
  C       3.680732     -0.911238     -0.613396
  C       3.309415      0.383204     -1.340482
  C       2.634268      1.366028     -0.381745
  C       1.436440      0.726768      0.301634
  H      -1.217554     -1.481879      1.043275
  H       2.737903     -2.393359      0.674988
  H       1.707073     -1.812319     -0.643584
  H       4.090428     -1.644991     -1.310036
  H       4.455817     -0.706284      0.132156
  H       4.200493      0.836142     -1.778772
  H       2.625247      0.154427     -2.163924
  H       2.292635      2.256332     -0.912967
  H       3.351132      1.697000      0.376591
  H       0.988433      1.379980      1.047691
  H       0.670550      0.451793     -0.421334
  H       2.466386     -0.320137      1.758229
  H      -0.612469     -1.314173      2.747972
  H       0.937164     -1.001176      1.439685
  O      -0.298574     -1.737354      1.939141
40
Coordinates from ORCA-job /home/rudenko/2025/kie/for_orca/m-clc6h4chno2ch3_piperidine/orca/ts_opt/ts_opt E -1303.193171890870
  C      -2.089110      2.453898      1.025391
  C      -2.096136      1.067963      1.104596
  C      -2.076121      0.278795     -0.049454
  C      -2.065819      0.918252     -1.291204
  C      -2.047858      2.302982     -1.349743
  C      -2.056053      3.092623     -0.209046
  H      -2.096486      3.046115      1.931548
  H      -2.106367      0.590803      2.075584
  H      -2.052687      0.347982     -2.207507
  Cl     -2.013321      3.081739     -2.923933
  H      -2.038164      4.170909     -0.284465
  C      -2.116577     -1.210361      0.114045
  C      -3.441891     -1.759749      0.610428
  H      -3.344905     -2.792810      0.940139
  H      -4.216360     -1.714352     -0.161155
  H      -3.771448     -1.160405      1.458440
  N      -1.557900     -1.963881     -0.967421
  O      -2.001272     -3.098153     -1.208059
  O      -0.560664     -1.523881     -1.569334
  N       1.824110     -0.537098      0.995462
  C       2.472332     -1.522494      0.078303
  C       3.681516     -0.910474     -0.612258
  C       3.309755      0.383086     -1.340686
  C       2.633244      1.366228     -0.383241
  C       1.435442      0.726637      0.299881
  H      -1.218071     -1.482228      1.042627
  H       2.738986     -2.392157      0.676815
  H       1.708532     -1.813020     -0.642877
  H       4.092168     -1.644532     -1.308015
  H       4.455980     -0.704322      0.133605
  H       4.200806      0.836289     -1.778759
  H       2.626304      0.153111     -2.164389
  H       2.291277      2.255803     -0.915471
  H       3.349350      1.698430      0.375280
  H       0.986284      1.380212      1.044930
  H       0.670366      0.450356     -0.423418
  H       2.465315     -0.318115      1.758060
  H      -0.612716     -1.315429      2.747539
  H       0.936779     -1.000818      1.439327
  O      -0.298620     -1.737936      1.938432
40
Coordinates from ORCA-job /home/rudenko/2025/kie/for_orca/m-clc6h4chno2ch3_piperidine/orca/ts_opt/ts_opt E -1303.193173274594
  C      -2.088376      2.453529      1.026195
  C      -2.096102      1.067586      1.105053
  C      -2.075851      0.278683     -0.049186
  C      -2.064626      0.918437     -1.290767
  C      -2.045947      2.303177     -1.348950
  C      -2.054331      3.092543     -0.208069
  H      -2.095938      3.045523      1.932496
  H      -2.107029      0.590194      2.075919
  H      -2.051273      0.348390     -2.207207
  Cl     -2.010186      3.082299     -2.922935
  H      -2.035784      4.170835     -0.283204
  C      -2.116758     -1.210479      0.114041
  C      -3.442136     -1.759628      0.610501
  H      -3.345356     -2.792793      0.939939
  H      -4.216718     -1.713844     -0.160943
  H      -3.771406     -1.160414      1.458714
  N      -1.558312     -1.964012     -0.967557
  O      -2.002148     -3.098032     -1.208490
  O      -0.560790     -1.524329     -1.569217
  N       1.823453     -0.536503      0.995222
  C       2.472744     -1.522144      0.079086
  C       3.681749     -0.909792     -0.611494
  C       3.309350      0.382921     -1.341098
  C       2.631674      1.366306     -0.384728
  C       1.434074      0.726320      0.298386
  H      -1.218204     -1.482562      1.042319
  H       2.739811     -2.391149      0.678368
  H       1.709433     -1.813803     -0.642165
  H       4.093216     -1.644104     -1.306502
  H       4.455751     -0.702474      0.134523
  H       4.200261      0.836436     -1.779131
  H       2.626431      0.151785     -2.164917
  H       2.289226      2.255175     -0.917828
  H       3.347189      1.699706      0.373828
  H       0.983964      1.380178      1.042605
  H       0.669611      0.448767     -0.425072
  H       2.464220     -0.316348      1.757858
  H      -0.612761     -1.317040      2.747381
  H       0.936368     -1.000643      1.439130
  O      -0.298494     -1.738695      1.937897
40
Coordinates from ORCA-job /home/rudenko/2025/kie/for_orca/m-clc6h4chno2ch3_piperidine/orca/ts_opt/ts_opt E -1303.193174681130
  C      -2.087936      2.453104      1.027288
  C      -2.096339      1.067143      1.105635
  C      -2.076017      0.278644     -0.048887
  C      -2.064136      0.918840     -1.290229
  C      -2.044737      2.303596     -1.347893
  C      -2.053093      3.092550     -0.206730
  H      -2.095517      3.044766      1.933806
  H      -2.107758      0.589403      2.076325
  H      -2.050697      0.349129     -2.206873
  Cl     -2.007975      3.083272     -2.921582
  H      -2.033871      4.170854     -0.281451
  C      -2.117201     -1.210549      0.113936
  C      -3.442548     -1.759630      0.610522
  H      -3.345839     -2.792905      0.939636
  H      -4.217294     -1.713512     -0.160736
  H      -3.771550     -1.160621      1.458981
  N      -1.559040     -1.963977     -0.967918
  O      -2.003358     -3.097715     -1.209244
  O      -0.561322     -1.524521     -1.569407
  N       1.822964     -0.535780      0.994863
  C       2.473576     -1.521849      0.080124
  C       3.682541     -0.909274     -0.610326
  C       3.309611      0.382390     -1.341513
  C       2.630526      1.366227     -0.386609
  C       1.433004      0.725974      0.296402
  H      -1.218497     -1.482780      1.041866
  H       2.740944     -2.390048      0.680438
  H       1.710942     -1.814835     -0.641309
  H       4.095044     -1.643986     -1.304294
  H       4.455877     -0.700555      0.135989
  H       4.200456      0.836146     -1.779432
  H       2.627411      0.149850     -2.165532
  H       2.287676      2.254243     -0.920876
  H       3.345276      1.701048      0.372048
  H       0.981774      1.380280      1.039546
  H       0.669316      0.446974     -0.427301
  H       2.463130     -0.314259      1.757618
  H      -0.612894     -1.318189      2.747064
  H       0.936023     -1.000284      1.438767
  O      -0.298470     -1.739164      1.937290
40
Coordinates from ORCA-job /home/rudenko/2025/kie/for_orca/m-clc6h4chno2ch3_piperidine/orca/ts_opt/ts_opt E -1303.193175990813
  C      -2.086754      2.452648      1.027858
  C      -2.096010      1.066686      1.105943
  C      -2.075836      0.278386     -0.048724
  C      -2.063326      0.918798     -1.289940
  C      -2.043066      2.303555     -1.347338
  C      -2.051180      3.092299     -0.206033
  H      -2.094187      3.044145      1.934485
  H      -2.107889      0.588771      2.076542
  H      -2.049987      0.349254     -2.206688
  Cl     -2.005433      3.083497     -2.920875
  H      -2.031166      4.170599     -0.280534
  C      -2.117535     -1.210808      0.113932
  C      -3.442969     -1.759528      0.610667
  H      -3.346519     -2.792875      0.939629
  H      -4.217829     -1.713076     -0.160453
  H      -3.771649     -1.160532      1.459260
  N      -1.559754     -1.964343     -0.968089
  O      -2.004698     -3.097764     -1.209678
  O      -0.561737     -1.525332     -1.569388
  N       1.822369     -0.535190      0.994665
  C       2.473902     -1.521387      0.080722
  C       3.682754     -0.908483     -0.609634
  C       3.309311      0.382513     -1.341740
  C       2.629219      1.366481     -0.387692
  C       1.431845      0.725853      0.295233
  H      -1.218766     -1.483200      1.041499
  H       2.741572     -2.389097      0.681608
  H       1.711705     -1.815241     -0.640827
  H       4.096004     -1.643357     -1.302988
  H       4.455642     -0.698813      0.136877
  H       4.200046      0.836563     -1.779577
  H       2.627578      0.149044     -2.165882
  H       2.285976      2.253937     -0.922637
  H       3.343448      1.702264      0.371033
  H       0.979793      1.380351      1.037703
  H       0.668699      0.445850     -0.428646
  H       2.462159     -0.312739      1.757468
  H      -0.612974     -1.319719      2.746898
  H       0.935638     -1.000121      1.438575
  O      -0.298395     -1.739889      1.936765
40
Coordinates from ORCA-job /home/rudenko/2025/kie/for_orca/m-clc6h4chno2ch3_piperidine/orca/ts_opt/ts_opt E -1303.193177255333
  C      -2.085908      2.452231      1.028581
  C      -2.095908      1.066264      1.106341
  C      -2.075829      0.278219     -0.048506
  C      -2.062749      0.918902     -1.289568
  C      -2.041716      2.303664     -1.346638
  C      -2.049641      3.092147     -0.205154
  H      -2.093233      3.043521      1.935343
  H      -2.108204      0.588129      2.076826
  H      -2.049459      0.349566     -2.206446
  Cl     -2.003245      3.083945     -2.919988
  H      -2.028905      4.170446     -0.279386
  C      -2.117917     -1.210987      0.113907
  C      -3.443395     -1.759478      0.610757
  H      -3.347118     -2.792904      0.939526
  H      -4.218367     -1.712727     -0.160228
  H      -3.771809     -1.160559      1.459505
  N      -1.560462     -1.964522     -0.968323
  O      -2.005954     -3.097644     -1.210248
  O      -0.562207     -1.525830     -1.569444
  N       1.821863     -0.534576      0.994414
  C       2.474405     -1.521002      0.081439
  C       3.683194     -0.907838     -0.608793
  C       3.309280      0.382390     -1.342012
  C       2.628095      1.366601     -0.388998
  C       1.430822      0.725672      0.293831
  H      -1.219051     -1.483528      1.041126
  H       2.742332     -2.388148      0.683024
  H       1.712712     -1.815819     -0.640254
  H       4.097265     -1.642952     -1.301403
  H       4.455565     -0.697110      0.137953
  H       4.199933      0.836691     -1.779755
  H       2.628082      0.147877     -2.166300
  H       2.284491      2.253425     -0.924760
  H       3.341740      1.703449      0.369807
  H       0.977895      1.380448      1.035519
  H       0.668270      0.444580     -0.430239
  H       2.461214     -0.311098      1.757292
  H      -0.613050     -1.321079      2.746704
  H       0.935303     -0.999889      1.438322
  O      -0.298335     -1.740480      1.936226
40
Coordinates from ORCA-job /home/rudenko/2025/kie/for_orca/m-clc6h4chno2ch3_piperidine/orca/ts_opt/ts_opt E -1303.193178443373
  C      -2.085075      2.451837      1.029261
  C      -2.095780      1.065865      1.106719
  C      -2.075767      0.278054     -0.048293
  C      -2.062118      0.918990     -1.289213
  C      -2.040356      2.303756     -1.345977
  C      -2.048132      3.091997     -0.204328
  H      -2.092320      3.042935      1.936149
  H      -2.108496      0.587526      2.077099
  H      -2.048861      0.349849     -2.206211
  Cl     -2.001064      3.084351     -2.919152
  H      -2.026721      4.170296     -0.278310
  C      -2.118250     -1.211162      0.113893
  C      -3.443786     -1.759415      0.610829
  H      -3.347694     -2.792913      0.939427
  H      -4.218848     -1.712379     -0.160047
  H      -3.771961     -1.160555      1.459711
  N      -1.561096     -1.964710     -0.968524
  O      -2.007122     -3.097539     -1.210772
  O      -0.562583     -1.526348     -1.569442
  N       1.821359     -0.533997      0.994181
  C       2.474849     -1.520630      0.082108
  C       3.683566     -0.907208     -0.608019
  C       3.309184      0.382291     -1.342283
  C       2.626971      1.366721     -0.390236
  C       1.429809      0.725497      0.292521
  H      -1.219305     -1.483854      1.040796
  H       2.743030     -2.387246      0.684343
  H       1.713625     -1.816355     -0.639714
  H       4.098416     -1.642541     -1.299928
  H       4.455451     -0.695471      0.138943
  H       4.199748      0.836838     -1.779951
  H       2.628484      0.146784     -2.166698
  H       2.283011      2.252947     -0.926762
  H       3.340072      1.704582      0.368635
  H       0.976066      1.380529      1.033482
  H       0.667806      0.443375     -0.431716
  H       2.460301     -0.309546      1.757120
  H      -0.613116     -1.322419      2.746545
  H       0.934975     -0.999677      1.438093
  O      -0.298270     -1.741058      1.935725
40
Coordinates from ORCA-job /home/rudenko/2025/kie/for_orca/m-clc6h4chno2ch3_piperidine/orca/ts_opt/ts_opt E -1303.193179557957
  C      -2.084261      2.451448      1.029923
  C      -2.095656      1.065472      1.107089
  C      -2.075734      0.277890     -0.048086
  C      -2.061559      0.919070     -1.288866
  C      -2.039081      2.303839     -1.345334
  C      -2.046682      3.091844     -0.203524
  H      -2.091406      3.042360      1.936933
  H      -2.108759      0.586934      2.077366
  H      -2.048355      0.350118     -2.205983
  Cl     -1.999020      3.084738     -2.918340
  H      -2.024608      4.170142     -0.277263
  C      -2.118594     -1.211338      0.113879
  C      -3.444187     -1.759363      0.610894
  H      -3.348271     -2.792929      0.939333
  H      -4.219330     -1.712059     -0.159881
  H      -3.772136     -1.160558      1.459900
  N      -1.561737     -1.964889     -0.968728
  O      -2.008285     -3.097430     -1.211302
  O      -0.562979     -1.526841     -1.569456
  N       1.820882     -0.533427      0.993950
  C       2.475293     -1.520265      0.082758
  C       3.683950     -0.906599     -0.607255
  C       3.309127      0.382190     -1.342539
  C       2.625917      1.366839     -0.391436
  C       1.428856      0.725339      0.291246
  H      -1.219570     -1.484170      1.040472
  H       2.743705     -2.386368      0.685625
  H       1.714529     -1.816864     -0.639195
  H       4.099561     -1.642148     -1.298476
  H       4.455355     -0.693885      0.139924
  H       4.199609      0.836970     -1.780133
  H       2.628912      0.145719     -2.167079
  H       2.281621      2.252483     -0.928709
  H       3.338489      1.705679      0.367498
  H       0.974327      1.380623      1.031498
  H       0.667383      0.442229     -0.433155
  H       2.459425     -0.308038      1.756954
  H      -0.613181     -1.323701      2.746392
  H       0.934663     -0.999459      1.437864
  O      -0.298211     -1.741597      1.935239
40
Coordinates from ORCA-job /home/rudenko/2025/kie/for_orca/m-clc6h4chno2ch3_piperidine/orca/ts_opt/ts_opt E -1303.193180627215
  C      -2.083481      2.451074      1.030564
  C      -2.095534      1.065094      1.107450
  C      -2.075691      0.277732     -0.047881
  C      -2.061002      0.919146     -1.288528
  C      -2.037841      2.303919     -1.344711
  C      -2.045286      3.091696     -0.202747
  H      -2.090538      3.041808      1.937692
  H      -2.109014      0.586365      2.077628
  H      -2.047842      0.350376     -2.205757
  Cl     -1.997033      3.085109     -2.917554
  H      -2.022579      4.169993     -0.276251
  C      -2.118916     -1.211506      0.113870
  C      -3.444570     -1.759310      0.610945
  H      -3.348830     -2.792941      0.939238
  H      -4.219782     -1.711752     -0.159741
  H      -3.772313     -1.160555      1.460065
  N      -1.562338     -1.965059     -0.968920
  O      -2.009389     -3.097321     -1.211812
  O      -0.563338     -1.527315     -1.569452
  N       1.820419     -0.532878      0.993729
  C       2.475713     -1.519912      0.083384
  C       3.684310     -0.906013     -0.606524
  C       3.309059      0.382089     -1.342793
  C       2.624894      1.366950     -0.392600
  C       1.427932      0.725187      0.290020
  H      -1.219824     -1.484477      1.040170
  H       2.744348     -2.385522      0.686860
  H       1.715391     -1.817352     -0.638693
  H       4.100655     -1.641771     -1.297080
  H       4.455253     -0.692353      0.140862
  H       4.199458      0.837092     -1.780321
  H       2.629307      0.144685     -2.167447
  H       2.280273      2.252032     -0.930590
  H       3.336959      1.706734      0.366392
  H       0.972656      1.380715      1.029595
  H       0.666965      0.441129     -0.434530
  H       2.458579     -0.306584      1.756792
  H      -0.613240     -1.324947      2.746256
  H       0.934361     -0.999246      1.437646
  O      -0.298150     -1.742113      1.934774
40
Coordinates from ORCA-job /home/rudenko/2025/kie/for_orca/m-clc6h4chno2ch3_piperidine/orca/ts_opt/ts_opt E -1303.193181610813
  C      -2.082714      2.450708      1.031178
  C      -2.095410      1.064724      1.107795
  C      -2.075655      0.277573     -0.047683
  C      -2.060479      0.919210     -1.288203
  C      -2.036649      2.303984     -1.344116
  C      -2.043929      3.091545     -0.202003
  H      -2.089677      3.041272      1.938417
  H      -2.109248      0.585813      2.077878
  H      -2.047371      0.350612     -2.205540
  Cl     -1.995127      3.085452     -2.916803
  H      -2.020605      4.169840     -0.275284
  C      -2.119237     -1.211676      0.113863
  C      -3.444952     -1.759262      0.610994
  H      -3.349385     -2.792953      0.939151
  H      -4.220228     -1.711461     -0.159611
  H      -3.772499     -1.160548      1.460219
  N      -1.562932     -1.965232     -0.969105
  O      -2.010474     -3.097221     -1.212308
  O      -0.563697     -1.527784     -1.569448
  N       1.819976     -0.532344      0.993516
  C       2.476117     -1.519564      0.083982
  C       3.684658     -0.905442     -0.605820
  C       3.308999      0.382000     -1.343035
  C       2.623920      1.367063     -0.393713
  C       1.427053      0.725051      0.288847
  H      -1.220078     -1.484779      1.039879
  H       2.744961     -2.384703      0.688040
  H       1.716218     -1.817807     -0.638214
  H       4.101709     -1.641399     -1.295738
  H       4.455155     -0.690877      0.141765
  H       4.199318      0.837218     -1.780501
  H       2.629692      0.143703     -2.167797
  H       2.278988      2.251608     -0.932391
  H       3.335500      1.707750      0.365332
  H       0.971064      1.380811      1.027773
  H       0.666567      0.440089     -0.435844
  H       2.457768     -0.305186      1.756637
  H      -0.613298     -1.326151      2.746129
  H       0.934073     -0.999037      1.437436
  O      -0.298092     -1.742603      1.934327
40
Coordinates from ORCA-job /home/rudenko/2025/kie/for_orca/m-clc6h4chno2ch3_piperidine/orca/ts_opt/ts_opt E -1303.193182567426
  C      -2.081953      2.450350      1.031753
  C      -2.095277      1.064364      1.108121
  C      -2.075608      0.277408     -0.047495
  C      -2.059953      0.919250     -1.287897
  C      -2.035469      2.304026     -1.343557
  C      -2.042590      3.091385     -0.201308
  H      -2.088824      3.040756      1.939094
  H      -2.109467      0.585283      2.078116
  H      -2.046896      0.350813     -2.205334
  Cl     -1.993245      3.085750     -2.916099
  H      -2.018661      4.169677     -0.274380
  C      -2.119545     -1.211850      0.113862
  C      -3.445327     -1.759213      0.611043
  H      -3.349936     -2.792960      0.939079
  H      -4.220657     -1.711181     -0.159491
  H      -3.772687     -1.160530      1.460360
  N      -1.563505     -1.965417     -0.969273
  O      -2.011528     -3.097140     -1.212772
  O      -0.564039     -1.528263     -1.569432
  N       1.819546     -0.531830      0.993316
  C       2.476486     -1.519219      0.084540
  C       3.684969     -0.904878     -0.605165
  C       3.308917      0.381941     -1.343265
  C       2.622977      1.367187     -0.394759
  C       1.426205      0.724933      0.287747
  H      -1.220327     -1.485080      1.039608
  H       2.745531     -2.383914      0.689141
  H       1.716986     -1.818217     -0.637767
  H       4.102688     -1.641020     -1.294482
  H       4.455047     -0.689457      0.142607
  H       4.199157      0.837365     -1.780677
  H       2.630026      0.142799     -2.168126
  H       2.277746      2.251224     -0.934081
  H       3.334100      1.708727      0.364332
  H       0.969545      1.380909      1.026066
  H       0.666169      0.439122     -0.437073
  H       2.456992     -0.303858      1.756488
  H      -0.613352     -1.327327      2.746018
  H       0.933794     -0.998837      1.437240
  O      -0.298035     -1.743078      1.933903
40
Coordinates from ORCA-job /home/rudenko/2025/kie/for_orca/m-clc6h4chno2ch3_piperidine/orca/ts_opt/ts_opt E -1303.193183420043
  C      -2.081211      2.450001      1.032303
  C      -2.095146      1.064014      1.108433
  C      -2.075566      0.277244     -0.047314
  C      -2.059451      0.919282     -1.287603
  C      -2.034332      2.304058     -1.343023
  C      -2.041291      3.091225     -0.200642
  H      -2.087988      3.040257      1.939743
  H      -2.109674      0.584771      2.078343
  H      -2.046449      0.350997     -2.205135
  Cl     -1.991433      3.086025     -2.915426
  H      -2.016775      4.169513     -0.273515
  C      -2.119847     -1.212023      0.113864
  C      -3.445696     -1.759167      0.611089
  H      -3.350478     -2.792966      0.939014
  H      -4.221075     -1.710914     -0.159378
  H      -3.772879     -1.160510      1.460492
  N      -1.564064     -1.965602     -0.969433
  O      -2.012556     -3.097065     -1.213220
  O      -0.564373     -1.528736     -1.569414
  N       1.819133     -0.531333      0.993123
  C       2.476839     -1.518881      0.085073
  C       3.685268     -0.904331     -0.604537
  C       3.308839      0.381891     -1.343486
  C       2.622075      1.367312     -0.395762
  C       1.425394      0.724826      0.286695
  H      -1.220574     -1.485374      1.039349
  H       2.746076     -2.383153      0.690194
  H       1.717721     -1.818602     -0.637341
  H       4.103628     -1.640647     -1.293278
  H       4.454942     -0.688091      0.143413
  H       4.199003      0.837513     -1.780846
  H       2.630347      0.141939     -2.168440
  H       2.276559      2.250862     -0.935699
  H       3.332762      1.709668      0.363374
  H       0.968095      1.381009      1.024433
  H       0.665789      0.438206     -0.438249
  H       2.456247     -0.302581      1.756344
  H      -0.613405     -1.328463      2.745915
  H       0.933526     -0.998641      1.437051
  O      -0.297980     -1.743530      1.933494
40
Coordinates from ORCA-job /home/rudenko/2025/kie/for_orca/m-clc6h4chno2ch3_piperidine/orca/ts_opt/ts_opt E -1303.193184265268
  C      -2.080479      2.449661      1.032819
  C      -2.095012      1.063673      1.108728
  C      -2.075519      0.277076     -0.047142
  C      -2.058954      0.919296     -1.287325
  C      -2.033214      2.304071     -1.342521
  C      -2.040015      3.091059     -0.200018
  H      -2.087165      3.039778      1.940350
  H      -2.109870      0.584279      2.078558
  H      -2.046006      0.351154     -2.204946
  Cl     -1.989656      3.086263     -2.914794
  H      -2.014926      4.169343     -0.272704
  C      -2.120140     -1.212198      0.113870
  C      -3.446058     -1.759122      0.611137
  H      -3.351013     -2.792970      0.938961
  H      -4.221482     -1.710657     -0.159271
  H      -3.773071     -1.160481      1.460617
  N      -1.564607     -1.965795     -0.969579
  O      -2.013555     -3.097007     -1.213640
  O      -0.564697     -1.529214     -1.569389
  N       1.818734     -0.530854      0.992940
  C       2.477165     -1.518547      0.085572
  C       3.685539     -0.903794     -0.603951
  C       3.308749      0.381863     -1.343695
  C       2.621206      1.367444     -0.396705
  C       1.424614      0.724734      0.285706
  H      -1.220816     -1.485667      1.039105
  H       2.746586     -2.382420      0.691179
  H       1.718408     -1.818950     -0.636941
  H       4.104505     -1.640272     -1.292149
  H       4.454831     -0.686779      0.144167
  H       4.198837      0.837678     -1.781009
  H       2.630632      0.141147     -2.168736
  H       2.275416      2.250535     -0.937221
  H       3.331481      1.710570      0.362471
  H       0.966713      1.381108      1.022899
  H       0.665414      0.437351     -0.439351
  H       2.455536     -0.301366      1.756207
  H      -0.613455     -1.329570      2.745824
  H       0.933268     -0.998453      1.436874
  O      -0.297924     -1.743967      1.933103
40
Coordinates from ORCA-job /home/rudenko/2025/kie/for_orca/m-clc6h4chno2ch3_piperidine/orca/ts_opt/ts_opt E -1303.193185043882
  C      -2.079774      2.449330      1.033315
  C      -2.094886      1.063342      1.109011
  C      -2.075474      0.276911     -0.046975
  C      -2.058473      0.919304     -1.287057
  C      -2.032130      2.304079     -1.342038
  C      -2.038781      3.090895     -0.199418
  H      -2.086373      3.039314      1.940934
  H      -2.110065      0.583803      2.078766
  H      -2.045574      0.351298     -2.204763
  Cl     -1.987929      3.086485     -2.914187
  H      -2.013137      4.169174     -0.271925
  C      -2.120425     -1.212370      0.113878
  C      -3.446412     -1.759079      0.611181
  H      -3.351535     -2.792973      0.938913
  H      -4.221875     -1.710412     -0.159171
  H      -3.773264     -1.160453      1.460733
  N      -1.565132     -1.965986     -0.969717
  O      -2.014521     -3.096954     -1.214043
  O      -0.565009     -1.529680     -1.569359
  N       1.818351     -0.530390      0.992764
  C       2.477475     -1.518221      0.086050
  C       3.685796     -0.903275     -0.603390
  C       3.308660      0.381841     -1.343899
  C       2.620373      1.367574     -0.397611
  C       1.423868      0.724652      0.284758
  H      -1.221055     -1.485950      1.038873
  H       2.747072     -2.381712      0.692123
  H       1.719063     -1.819278     -0.636558
  H       4.105343     -1.639907     -1.291070
  H       4.454724     -0.685518      0.144886
  H       4.198675      0.837839     -1.781170
  H       2.630902      0.140392     -2.169020
  H       2.274321      2.250225     -0.938680
  H       3.330255      1.711438      0.361602
  H       0.965392      1.381209      1.021429
  H       0.665054      0.436540     -0.440406
  H       2.454853     -0.300197      1.756075
  H      -0.613503     -1.330637      2.745739
  H       0.933020     -0.998269      1.436703
  O      -0.297870     -1.744382      1.932727
40
Coordinates from ORCA-job /home/rudenko/2025/kie/for_orca/m-clc6h4chno2ch3_piperidine/orca/ts_opt/ts_opt E -1303.193185783273
  C      -2.079085      2.449009      1.033784
  C      -2.094758      1.063021      1.109280
  C      -2.075429      0.276746     -0.046817
  C      -2.058005      0.919302     -1.286803
  C      -2.031078      2.304076     -1.341581
  C      -2.037581      3.090730     -0.198850
  H      -2.085597      3.038866      1.941486
  H      -2.110248      0.583346      2.078963
  H      -2.045157      0.351426     -2.204589
  Cl     -1.986258      3.086684     -2.913613
  H      -2.011397      4.169004     -0.271188
  C      -2.120702     -1.212540      0.113888
  C      -3.446758     -1.759038      0.611225
  H      -3.352046     -2.792975      0.938871
  H      -4.222256     -1.710178     -0.159077
  H      -3.773455     -1.160421      1.460842
  N      -1.565641     -1.966178     -0.969846
  O      -2.015458     -3.096911     -1.214425
  O      -0.565311     -1.530143     -1.569327
  N       1.817983     -0.529943      0.992596
  C       2.477766     -1.517903      0.086501
  C       3.686035     -0.902770     -0.602860
  C       3.308568      0.381832     -1.344092
  C       2.619574      1.367707     -0.398470
  C       1.423152      0.724580      0.283859
  H      -1.221288     -1.486228      1.038653
  H       2.747531     -2.381031      0.693016
  H       1.719683     -1.819581     -0.636196
  H       4.106134     -1.639547     -1.290047
  H       4.454617     -0.684308      0.145567
  H       4.198512      0.838005     -1.781323
  H       2.631150      0.139686     -2.169288
  H       2.273272      2.249939     -0.940063
  H       3.329082      1.712271      0.360777
  H       0.964131      1.381310      1.020035
  H       0.664704      0.435777     -0.441405
  H       2.454199     -0.299080      1.755948
  H      -0.613549     -1.331669      2.745662
  H       0.932781     -0.998090      1.436542
  O      -0.297817     -1.744778      1.932367
40
Coordinates from ORCA-job /home/rudenko/2025/kie/for_orca/m-clc6h4chno2ch3_piperidine/orca/ts_opt/ts_opt E -1303.193186458577
  C      -2.078408      2.448695      1.034224
  C      -2.094631      1.062707      1.109534
  C      -2.075380      0.276578     -0.046666
  C      -2.057538      0.919285     -1.286563
  C      -2.030038      2.304057     -1.341152
  C      -2.036399      3.090560     -0.198319
  H      -2.084838      3.038435      1.942002
  H      -2.110428      0.582906      2.079149
  H      -2.044737      0.351527     -2.204423
  Cl     -1.984604      3.086850     -2.913074
  H      -2.009687      4.168828     -0.270498
  C      -2.120970     -1.212713      0.113903
  C      -3.447097     -1.758998      0.611271
  H      -3.352550     -2.792976      0.938841
  H      -4.222626     -1.709953     -0.158986
  H      -3.773646     -1.160385      1.460946
  N      -1.566134     -1.966378     -0.969963
  O      -2.016369     -3.096883     -1.214782
  O      -0.565604     -1.530609     -1.569288
  N       1.817627     -0.529512      0.992438
  C       2.478032     -1.517588      0.086921
  C       3.686248     -0.902274     -0.602369
  C       3.308463      0.381843     -1.344277
  C       2.618803      1.367847     -0.399278
  C       1.422464      0.724521      0.283017
  H      -1.221518     -1.486504      1.038448
  H       2.747960     -2.380375      0.693848
  H       1.720257     -1.819851     -0.635857
  H       4.106867     -1.639184     -1.289093
  H       4.454505     -0.683147      0.146197
  H       4.198336      0.838185     -1.781474
  H       2.631363      0.139040     -2.169542
  H       2.272261      2.249684     -0.941360
  H       3.327960      1.713070      0.359999
  H       0.962930      1.381411      1.018728
  H       0.664360      0.435069     -0.442340
  H       2.453576     -0.298018      1.755827
  H      -0.613594     -1.332671      2.745595
  H       0.932551     -0.997919      1.436391
  O      -0.297766     -1.745161      1.932025
40
Coordinates from ORCA-job /home/rudenko/2025/kie/for_orca/m-clc6h4chno2ch3_piperidine/orca/ts_opt/ts_opt E -1303.193187107160
  C      -2.077743      2.448390      1.034637
  C      -2.094502      1.062404      1.109772
  C      -2.075331      0.276410     -0.046524
  C      -2.057087      0.919257     -1.286337
  C      -2.029029      2.304026     -1.340749
  C      -2.035249      3.090388     -0.197821
  H      -2.084090      3.038021      1.942486
  H      -2.110595      0.582484      2.079324
  H      -2.044336      0.351611     -2.204267
  Cl     -1.983006      3.086991     -2.912569
  H      -2.008022      4.168650     -0.269850
  C      -2.121232     -1.212885      0.113919
  C      -3.447429     -1.758959      0.611319
  H      -3.353046     -2.792974      0.938821
  H      -4.222987     -1.709737     -0.158896
  H      -3.773834     -1.160343      1.461046
  N      -1.566617     -1.966583     -0.970070
  O      -2.017258     -3.096865     -1.215118
  O      -0.565890     -1.531076     -1.569246
  N       1.817285     -0.529099      0.992288
  C       2.478281     -1.517279      0.087316
  C       3.686445     -0.901789     -0.601905
  C       3.308356      0.381869     -1.344451
  C       2.618065      1.367990     -0.400038
  C       1.421806      0.724473      0.282223
  H      -1.221743     -1.486774      1.038252
  H       2.748364     -2.379745      0.694630
  H       1.720797     -1.820096     -0.635541
  H       4.107557     -1.638823     -1.288195
  H       4.454394     -0.682035      0.146792
  H       4.198162      0.838375     -1.781614
  H       2.631558      0.138445     -2.169780
  H       2.271295      2.249455     -0.942581
  H       3.326890      1.713836      0.359269
  H       0.961785      1.381511      1.017496
  H       0.664027      0.434407     -0.443222
  H       2.452980     -0.297008      1.755711
  H      -0.613637     -1.333642      2.745533
  H       0.932331     -0.997756      1.436247
  O      -0.297715     -1.745529      1.931696
40
Coordinates from ORCA-job /home/rudenko/2025/kie/for_orca/m-clc6h4chno2ch3_piperidine/orca/ts_opt/ts_opt E -1303.193187674825
  C      -2.077118      2.448097      1.035040
  C      -2.094388      1.062112      1.110005
  C      -2.075286      0.276251     -0.046384
  C      -2.056654      0.919236     -1.286116
  C      -2.028065      2.304002     -1.340355
  C      -2.034154      3.090227     -0.197333
  H      -2.083390      3.037622      1.942960
  H      -2.110766      0.582078      2.079495
  H      -2.043946      0.351699     -2.204113
  Cl     -1.981471      3.087136     -2.912075
  H      -2.006437      4.168482     -0.269217
  C      -2.121484     -1.213047      0.113935
  C      -3.447748     -1.758922      0.611360
  H      -3.353521     -2.792973      0.938796
  H      -4.223332     -1.709530     -0.158816
  H      -3.774019     -1.160306      1.461139
  N      -1.567076     -1.966773     -0.970173
  O      -2.018105     -3.096842     -1.215444
  O      -0.566160     -1.531515     -1.569203
  N       1.816958     -0.528699      0.992141
  C       2.478525     -1.516984      0.087700
  C       3.686639     -0.901328     -0.601457
  C       3.308259      0.381885     -1.344623
  C       2.617359      1.368122     -0.400780
  C       1.421176      0.724424      0.281450
  H      -1.221961     -1.487032      1.038066
  H       2.748757     -2.379137      0.695392
  H       1.721324     -1.820338     -0.635230
  H       4.108227     -1.638483     -1.287324
  H       4.454291     -0.680966      0.147366
  H       4.198000      0.838546     -1.781755
  H       2.631752      0.137859     -2.170013
  H       2.270370      2.249227     -0.943770
  H       3.325863      1.714572      0.358554
  H       0.960687      1.381609      1.016299
  H       0.663711      0.433765     -0.444078
  H       2.452407     -0.296029      1.755599
  H      -0.613677     -1.334575      2.745474
  H       0.932120     -0.997594      1.436107
  O      -0.297664     -1.745876      1.931377
40
Coordinates from ORCA-job /home/rudenko/2025/kie/for_orca/m-clc6h4chno2ch3_piperidine/orca/ts_opt/ts_opt E -1303.193188257095
  C      -2.076503      2.447812      1.035420
  C      -2.094271      1.061829      1.110225
  C      -2.075242      0.276091     -0.046252
  C      -2.056235      0.919205     -1.285907
  C      -2.027127      2.303969     -1.339984
  C      -2.033086      3.090064     -0.196874
  H      -2.082699      3.037237      1.943405
  H      -2.110926      0.581686      2.079657
  H      -2.043572      0.351771     -2.203969
  Cl     -1.979985      3.087259     -2.911609
  H      -2.004891      4.168313     -0.268621
  C      -2.121730     -1.213209      0.113952
  C      -3.448061     -1.758886      0.611402
  H      -3.353987     -2.792972      0.938777
  H      -4.223669     -1.709333     -0.158737
  H      -3.774202     -1.160267      1.461227
  N      -1.567523     -1.966966     -0.970269
  O      -2.018929     -3.096830     -1.215752
  O      -0.566425     -1.531953     -1.569160
  N       1.816644     -0.528314      0.992003
  C       2.478752     -1.516695      0.088062
  C       3.686817     -0.900879     -0.601035
  C       3.308158      0.381913     -1.344785
  C       2.616683      1.368258     -0.401478
  C       1.420573      0.724386      0.280723
  H      -1.222175     -1.487286      1.037889
  H       2.749127     -2.378552      0.696109
  H       1.721818     -1.820557     -0.634938
  H       4.108855     -1.638147     -1.286503
  H       4.454189     -0.679942      0.147906
  H       4.197837      0.838723     -1.781888
  H       2.631927      0.137317     -2.170232
  H       2.269485      2.249021     -0.944890
  H       3.324883      1.715277      0.357880
  H       0.959642      1.381706      1.015171
  H       0.663404      0.433167     -0.444883
  H       2.451860     -0.295098      1.755492
  H      -0.613717     -1.335474      2.745421
  H       0.931917     -0.997439      1.435975
  O      -0.297616     -1.746207      1.931073
40
Coordinates from ORCA-job /home/rudenko/2025/kie/for_orca/m-clc6h4chno2ch3_piperidine/orca/ts_opt/ts_opt E -1303.193188780776
  C      -2.075968      2.447541      1.035824
  C      -2.094198      1.061559      1.110457
  C      -2.075214      0.275955     -0.046113
  C      -2.055835      0.919207     -1.285685
  C      -2.026243      2.303968     -1.339589
  C      -2.032103      3.089925     -0.196386
  H      -2.082111      3.036859      1.943878
  H      -2.111130      0.581300      2.079827
  H      -2.043195      0.351882     -2.203814
  Cl     -1.978552      3.087429     -2.911114
  H      -2.003462      4.168170     -0.267989
  C      -2.121966     -1.213350      0.113963
  C      -3.448359     -1.758858      0.611428
  H      -3.354421     -2.792980      0.938733
  H      -4.223988     -1.709147     -0.158678
  H      -3.774383     -1.160248      1.461305
  N      -1.567943     -1.967121     -0.970372
  O      -2.019712     -3.096782     -1.216081
  O      -0.566664     -1.532336     -1.569114
  N       1.816348     -0.527936      0.991860
  C       2.479002     -1.516429      0.088441
  C       3.687021     -0.900464     -0.600601
  C       3.308087      0.381893     -1.344959
  C       2.616031      1.368361     -0.402211
  C       1.419994      0.724328      0.279968
  H      -1.222377     -1.487517      1.037721
  H       2.749519     -2.377977      0.696863
  H       1.722340     -1.820815     -0.634627
  H       4.109513     -1.637857     -1.285656
  H       4.454111     -0.678939      0.148457
  H       4.197704      0.838845     -1.782039
  H       2.632135      0.136712     -2.170462
  H       2.268627      2.248773     -0.946062
  H       3.323925      1.715965      0.357167
  H       0.958621      1.381796      1.014006
  H       0.663121      0.432539     -0.445711
  H       2.451324     -0.294162      1.755382
  H      -0.613753     -1.336310      2.745364
  H       0.931724     -0.997275      1.435839
  O      -0.297569     -1.746503      1.930781
40
Coordinates from ORCA-job /home/rudenko/2025/kie/for_orca/m-clc6h4chno2ch3_piperidine/orca/ts_opt/ts_opt E -1303.193189235257
  C      -2.075417      2.447274      1.036178
  C      -2.094114      1.061293      1.110666
  C      -2.075169      0.275803     -0.045985
  C      -2.055409      0.919171     -1.285486
  C      -2.025330      2.303930     -1.339241
  C      -2.031097      3.089768     -0.195958
  H      -2.081512      3.036500      1.944293
  H      -2.111329      0.580936      2.079982
  H      -2.042787      0.351940     -2.203673
  Cl     -1.977084      3.087533     -2.910678
  H      -2.002011      4.168007     -0.267434
  C      -2.122196     -1.213505      0.113985
  C      -3.448653     -1.758826      0.611470
  H      -3.354861     -2.792979      0.938719
  H      -4.224303     -1.708961     -0.158603
  H      -3.774557     -1.160212      1.461389
  N      -1.568361     -1.967306     -0.970453
  O      -2.020487     -3.096771     -1.216365
  O      -0.566905     -1.532755     -1.569059
  N       1.816057     -0.527579      0.991727
  C       2.479210     -1.516158      0.088768
  C       3.687179     -0.900040     -0.600224
  C       3.307981      0.381927     -1.345120
  C       2.615396      1.368491     -0.402864
  C       1.419432      0.724293      0.279296
  H      -1.222577     -1.487759      1.037569
  H       2.749866     -2.377431      0.697517
  H       1.722794     -1.821016     -0.634360
  H       4.110086     -1.637535     -1.284913
  H       4.454013     -0.677982      0.148938
  H       4.197536      0.839018     -1.782178
  H       2.632280      0.136217     -2.170671
  H       2.267793      2.248586     -0.947102
  H       3.323013      1.716623      0.356533
  H       0.957657      1.381885      1.012969
  H       0.662828      0.431990     -0.446450
  H       2.450819     -0.293302      1.755278
  H      -0.613794     -1.337135      2.745319
  H       0.931537     -0.997130      1.435714
  O      -0.297526     -1.746804      1.930505
40
Coordinates from ORCA-job /home/rudenko/2025/kie/for_orca/m-clc6h4chno2ch3_piperidine/orca/ts_opt/ts_opt E -1303.193189739292
  C      -2.074812      2.447007      1.036483
  C      -2.093979      1.061030      1.110843
  C      -2.075118      0.275637     -0.045877
  C      -2.055021      0.919106     -1.285317
  C      -2.024458      2.303860     -1.338942
  C      -2.030086      3.089595     -0.195589
  H      -2.080822      3.036154      1.944649
  H      -2.111440      0.580587      2.080113
  H      -2.042458      0.351956     -2.203554
  Cl     -1.975722      3.087584     -2.910305
  H      -2.000552      4.167826     -0.266955
  C      -2.122425     -1.213670      0.114008
  C      -3.448950     -1.758790      0.611519
  H      -3.355311     -2.792971      0.938727
  H      -4.224619     -1.708778     -0.158523
  H      -3.774730     -1.160158      1.461472
  N      -1.568783     -1.967517     -0.970527
  O      -2.021266     -3.096791     -1.216623
  O      -0.567154     -1.533207     -1.569008
  N       1.815775     -0.527236      0.991613
  C       2.479386     -1.515880      0.089061
  C       3.687307     -0.899614     -0.599878
  C       3.307865      0.382003     -1.345251
  C       2.614795      1.368642     -0.403434
  C       1.418899      0.724285      0.278700
  H      -1.222782     -1.488004      1.037413
  H       2.750168     -2.376909      0.698098
  H       1.723194     -1.821162     -0.634125
  H       4.110594     -1.637194     -1.284240
  H       4.453906     -0.677076      0.149382
  H       4.197362      0.839229     -1.782286
  H       2.632393      0.135818     -2.170848
  H       2.267009      2.248453     -0.948015
  H       3.322156      1.717250      0.355984
  H       0.956749      1.381982      1.012043
  H       0.662543      0.431517     -0.447112
  H       2.450341     -0.292501      1.755190
  H      -0.613828     -1.337959      2.745276
  H       0.931355     -0.996995      1.435604
  O      -0.297480     -1.747106      1.930232
40
Coordinates from ORCA-job /home/rudenko/2025/kie/for_orca/m-clc6h4chno2ch3_piperidine/orca/ts_opt/ts_opt E -1303.193190167715
  C      -2.074290      2.446759      1.036805
  C      -2.093887      1.060784      1.111032
  C      -2.075080      0.275495     -0.045761
  C      -2.054649      0.919069     -1.285137
  C      -2.023638      2.303820     -1.338627
  C      -2.029161      3.089447     -0.195201
  H      -2.080240      3.035822      1.945026
  H      -2.111593      0.580251      2.080252
  H      -2.042117      0.352004     -2.203427
  Cl     -1.974415      3.087672     -2.909910
  H      -1.999212      4.167671     -0.266452
  C      -2.122639     -1.213814      0.114028
  C      -3.449227     -1.758760      0.611552
  H      -3.355724     -2.792971      0.938711
  H      -4.224911     -1.708608     -0.158464
  H      -3.774900     -1.160123      1.461543
  N      -1.569167     -1.967689     -0.970602
  O      -2.021976     -3.096782     -1.216885
  O      -0.567377     -1.533591     -1.568956
  N       1.815509     -0.526901      0.991496
  C       2.479573     -1.515625      0.089365
  C       3.687451     -0.899225     -0.599530
  C       3.307772      0.382035     -1.345393
  C       2.614220      1.368764     -0.404027
  C       1.418389      0.724261      0.278088
  H      -1.222975     -1.488227      1.037267
  H       2.750479     -2.376403      0.698702
  H       1.723605     -1.821337     -0.633875
  H       4.111113     -1.636900     -1.283556
  H       4.453816     -0.676204      0.149825
  H       4.197214      0.839386     -1.782409
  H       2.632528      0.135369     -2.171034
  H       2.266258      2.248287     -0.948961
  H       3.321329      1.717851      0.355408
  H       0.955871      1.382073      1.011094
  H       0.662279      0.431024     -0.447786
  H       2.449878     -0.291705      1.755098
  H      -0.613856     -1.338741      2.745237
  H       0.931183     -0.996855      1.435494
  O      -0.297432     -1.747381      1.929970
40
Coordinates from ORCA-job /home/rudenko/2025/kie/for_orca/m-clc6h4chno2ch3_piperidine/orca/ts_opt/ts_opt E -1303.193190544618
  C      -2.074030      2.446547      1.037247
  C      -2.093969      1.060570      1.111290
  C      -2.075089      0.275423     -0.045603
  C      -2.054276      0.919152     -1.284890
  C      -2.022901      2.303904     -1.338192
  C      -2.028460      3.089384     -0.194666
  H      -2.080029      3.035494      1.945543
  H      -2.111966      0.579914      2.080443
  H      -2.041672      0.352206     -2.203254
  Cl     -1.973122      3.087943     -2.909365
  H      -1.998181      4.167607     -0.265763
  C      -2.122841     -1.213894      0.114034
  C      -3.449466     -1.758744      0.611550
  H      -3.356053     -2.792991      0.938619
  H      -4.225167     -1.708457     -0.158437
  H      -3.775059     -1.160150      1.461601
  N      -1.569493     -1.967742     -0.970693
  O      -2.022572     -3.096675     -1.217192
  O      -0.567557     -1.533797     -1.568911
  N       1.815273     -0.526573      0.991335
  C       2.479866     -1.515437      0.089745
  C       3.687707     -0.898921     -0.599107
  C       3.307779      0.381899     -1.345597
  C       2.613674      1.368783     -0.404803
  C       1.417902      0.724158      0.277306
  H      -1.223134     -1.488394      1.037147
  H       2.750899     -2.375896      0.699474
  H       1.724166     -1.821675     -0.633556
  H       4.111800     -1.636738     -1.282712
  H       4.453799     -0.675321      0.150354
  H       4.197169      0.839365     -1.782598
  H       2.632810      0.134651     -2.171288
  H       2.265527      2.247954     -0.950191
  H       3.320487      1.718447      0.354644
  H       0.954972      1.382133      1.009906
  H       0.662071      0.430365     -0.448629
  H       2.449404     -0.290831      1.754974
  H      -0.613898     -1.339387      2.745179
  H       0.931031     -0.996691      1.435340
  O      -0.297402     -1.747582      1.929717
