!  NUMFREQ B3LYP def2-TZVP CPCM D3 
%pal nprocs 102 end
%cpcm epsilon 78.4 end 
*xyz 0 1 
C   -3.43590126986819 1.62827858923163 0.03348448744325
H   -4.30045060393109 1.63504097995275 -0.62049846247739
N   -4.5503852382127 -0.05770037148476 1.44862935356727
O   -5.59227870671658 0.05137955733031 0.7856524821967
O   -4.51536324518204 -0.71602820688914 2.50148803421374
H   -1.62670502095901 2.59983837119339 0.5450242056216
C   -3.32766140048286 0.48833485995517 0.95285556892107
H   -2.83108900097449 -0.52420901829676 0.26126113305814 M = 2
H   -2.63224526096528 0.60384681750157 1.77854410457971
C   -2.50827361460643 2.57926150959432 -0.08646230930846
H   -2.60197871658528 3.36203073698079 -0.82817263366048
C   1.13003771704476 -1.54226335134196 -0.01113719743779
C   2.45519625058382 -1.14483820726731 0.01393841308727
C   2.77021641781136 0.13059980320805 -0.49351001092717
C   1.73689172282685 0.92247135008101 -0.99342522631331
C   0.43883084444291 0.45582811257506 -0.98337309797209
N   0.16150878644831 -0.7567736328622 -0.49759492936699
H   0.81613994006464 -2.50778044640303 0.36298677995863
H   1.94536171151525 1.90690165701082 -1.38949192607746
H   -0.39911471227142 1.03142733953187 -1.35042969174716
C   3.50832009783417 -2.05550003454713 0.56843853582896
H   4.02632002741885 -1.58449753095319 1.40712786918324
H   4.26329372372352 -2.28127318959558 -0.18821216071129
H   3.07181746184515 -2.99173408768091 0.91249946851097
C   4.18150937133805 0.62531921453191 -0.49462147916662
H   4.24831190879161 1.6238877132078 -0.92188872254792
H   4.823441019375 -0.04799903712755 -1.06805220200262
H   4.57997680954552 0.64900483256407 0.52285130605062
H   -0.92756920572266 -1.11326445951601 -0.4861242322023
O   -2.25542666727211 -1.49466781345296 -0.40075177960311
H   -2.65273114685968 -1.47492205703202 -1.28103568069904
*
