41
Coordinates from ORCA-job /home/rudenko/2025/kie/for_orca/m-o2nc6h4chno2ch3_piperidine/orca/ts_opt/ts_opt E -1047.475614240817
  C      -2.993983     -0.564965     -1.658699
  C      -1.666166     -0.314946     -1.329237
  C      -0.619544     -0.664068     -2.189571
  C      -0.938640     -1.282466     -3.397367
  C      -2.270122     -1.513695     -3.713538
  C      -3.315023     -1.165303     -2.865744
  H      -3.782711     -0.280144     -0.975219
  H      -1.434394      0.166911     -0.389005
  H      -0.170559     -1.576717     -4.094382
  H      -4.338117     -1.357658     -3.148871
  N      -2.588033     -2.151742     -4.994769
  O      -3.767232     -2.339478     -5.272290
  O      -1.665045     -2.469245     -5.735391
  C       0.785757     -0.419839     -1.735349
  C       1.303045     -1.403565     -0.700213
  H       0.519317     -1.584105      0.034116
  H       2.173006     -1.008790     -0.177541
  H       1.575007     -2.362651     -1.149913
  N       1.721078     -0.152780     -2.783747
  O       2.915737     -0.446292     -2.614294
  O       1.347759      0.468635     -3.794398
  H       0.780637      0.762555     -1.129036
  C      -0.249393      0.323447      3.937681
  C       1.080658      0.309223      4.604861
  C       1.968808      1.465953      4.121996
  C       1.967631      1.564481      2.605555
  N       0.578912      1.722726      2.084064
  C      -0.316495      0.589159      2.479233
  H      -1.119832     -0.093810      4.425010
  H       0.970439      0.339125      5.689919
  H       1.594627     -0.639100      4.373354
  H       2.994927      1.328534      4.466055
  H       1.607311      2.409070      4.541566
  H       2.542992      2.418153      2.251429
  H       2.370550      0.660095      2.146649
  H       0.187370      2.594130      2.441913
  H      -1.324216      0.830592      2.144468
  H       0.030242     -0.272701      1.894603
  H       0.620101      1.804578      0.986300
  H       0.110401      2.419282     -0.887141
  O       0.813192      1.887410     -0.493055
41
Coordinates from ORCA-job /home/rudenko/2025/kie/for_orca/m-o2nc6h4chno2ch3_piperidine/orca/ts_opt/ts_opt E -1047.475541489002
  C      -3.073469     -0.544023     -1.812905
  C      -1.764040     -0.299343     -1.413354
  C      -0.674174     -0.664805     -2.210862
  C      -0.930724     -1.293474     -3.428160
  C      -2.244372     -1.519555     -3.814715
  C      -3.331862     -1.155485     -3.029350
  H      -3.896482     -0.247041     -1.176640
  H      -1.580923      0.190540     -0.466603
  H      -0.127523     -1.600848     -4.078327
  H      -4.339158     -1.344821     -3.366091
  N      -2.495495     -2.170495     -5.104230
  O      -3.658685     -2.357322     -5.442831
  O      -1.535197     -2.502839     -5.788778
  C       0.705622     -0.427775     -1.681055
  C       1.155573     -1.405573     -0.609503
  H       0.330883     -1.571032      0.082446
  H       1.999554     -1.013527     -0.043714
  H       1.442184     -2.371932     -1.034171
  N       1.700400     -0.178763     -2.677902
  O       2.881029     -0.480871     -2.439310
  O       1.389693      0.435832     -3.713617
  H       0.676636      0.760178     -1.086378
  C      -0.127317      0.311613      4.019635
  C       1.234612      0.320992      4.619116
  C       2.076978      1.492973      4.092724
  C       1.998003      1.590848      2.578256
  N       0.582275      1.724357      2.127214
  C      -0.272169      0.575534      2.566605
  H      -0.964776     -0.120812      4.549666
  H       1.178519      0.349394      5.708355
  H       1.752863     -0.618259      4.361633
  H       3.121340      1.373752      4.384751
  H       1.720488      2.429763      4.530386
  H       2.539818      2.454324      2.196043
  H       2.393191      0.693435      2.099341
  H       0.193881      2.589055      2.504278
  H      -1.299512      0.799148      2.283018
  H       0.059738     -0.280421      1.964933
  H       0.566286      1.805400      1.028741
  H      -0.065619      2.382072     -0.820244
  O       0.681931      1.889809     -0.458401
41
Coordinates from ORCA-job /home/rudenko/2025/kie/for_orca/m-o2nc6h4chno2ch3_piperidine/orca/ts_opt/ts_opt E -1047.473965239801
  C      -3.092857     -0.602341     -1.827724
  C      -1.792984     -0.329728     -1.413127
  C      -0.689670     -0.655913     -2.210394
  C      -0.919192     -1.283790     -3.432042
  C      -2.221850     -1.544656     -3.829044
  C      -3.325095     -1.213868     -3.050117
  H      -3.928288     -0.334713     -1.194709
  H      -1.626522      0.144644     -0.450752
  H      -0.102704     -1.568426     -4.076713
  H      -4.324264     -1.429340     -3.395255
  N      -2.435688     -2.200196     -5.122514
  O      -3.588156     -2.343510     -5.514986
  O      -1.456756     -2.419156     -5.827127
  C       0.677500     -0.410491     -1.660878
  C       1.117466     -1.405408     -0.601903
  H       0.282449     -1.589046      0.072266
  H       1.951184     -1.021793     -0.016161
  H       1.413493     -2.362395     -1.041524
  N       1.682820     -0.150237     -2.642482
  O       2.859892     -0.460881     -2.399503
  O       1.377481      0.463057     -3.680452
  H       0.621328      0.779593     -1.067134
  C      -0.128480      0.381910      4.042097
  C       1.244269      0.323851      4.615453
  C       2.134712      1.451359      4.069068
  C       2.034729      1.547186      2.555672
  N       0.617921      1.748926      2.133045
  C      -0.285060      0.643694      2.590243
  H      -0.976709     -0.007023      4.588552
  H       1.211193      0.357347      5.705582
  H       1.708943     -0.640644      4.350028
  H       3.176975      1.283323      4.344149
  H       1.831164      2.406287      4.507419
  H       2.611020      2.381546      2.159416
  H       2.374702      0.629684      2.073261
  H       0.279973      2.631572      2.516492
  H      -1.304478      0.913643      2.318156
  H      -0.003616     -0.228908      1.992564
  H       0.572640      1.828631      1.037590
  H      -0.184481      2.370194     -0.767741
  O       0.604997      1.916016     -0.448774
41
Coordinates from ORCA-job /home/rudenko/2025/kie/for_orca/m-o2nc6h4chno2ch3_piperidine/orca/ts_opt/ts_opt E -1047.475695700994
  C      -3.034820     -0.579944     -1.731478
  C      -1.721151     -0.304854     -1.366844
  C      -0.645028     -0.646820     -2.193052
  C      -0.919035     -1.284523     -3.401483
  C      -2.236586     -1.542723     -3.752103
  C      -3.311069     -1.201719     -2.938831
  H      -3.847176     -0.301055     -1.073684
  H      -1.523616      0.188570     -0.424170
  H      -0.126313     -1.576622     -4.071302
  H      -4.322231     -1.416473     -3.247612
  N      -2.504499     -2.206102     -5.031819
  O      -3.670924     -2.418950     -5.342482
  O      -1.554006     -2.508881     -5.743466
  C       0.742337     -0.384753     -1.697368
  C       1.233432     -1.355810     -0.637972
  H       0.428268     -1.533987      0.073676
  H       2.085306     -0.951477     -0.092829
  H       1.523599     -2.317878     -1.070461
  N       1.708226     -0.120905     -2.718279
  O       2.898744     -0.405648     -2.509796
  O       1.361657      0.486323     -3.746941
  H       0.704750      0.804105     -1.104250
  C      -0.215252      0.363656      3.978965
  C       1.141761      0.276021      4.583521
  C       2.062269      1.395704      4.073703
  C       1.997468      1.515110      2.560029
  N       0.595472      1.746621      2.105566
  C      -0.335081      0.651741      2.528413
  H      -1.082020     -0.018607      4.500382
  H       1.082911      0.295715      5.672820
  H       1.597765     -0.692450      4.316850
  H       3.095093      1.204972      4.368817
  H       1.765876      2.349136      4.520188
  H       2.596831      2.345054      2.189546
  H       2.334492      0.598793      2.072607
  H       0.263144      2.630731      2.491019
  H      -1.343939      0.945118      2.242012
  H      -0.056833     -0.217636      1.919666
  H       0.586439      1.839652      1.008306
  H      -0.056605      2.416553     -0.832654
  O       0.700344      1.934239     -0.477210
41
Coordinates from ORCA-job /home/rudenko/2025/kie/for_orca/m-o2nc6h4chno2ch3_piperidine/orca/ts_opt/ts_opt E -1047.475867498237
  C      -2.958159     -0.619360     -1.591452
  C      -1.639968     -0.296300     -1.287798
  C      -0.589017     -0.617567     -2.153731
  C      -0.893236     -1.282318     -3.340150
  C      -2.215270     -1.589253     -3.629475
  C      -3.264885     -1.269792     -2.776056
  H      -3.750511     -0.355397     -0.903761
  H      -1.419377      0.219699     -0.362996
  H      -0.120577     -1.559290     -4.039135
  H      -4.280605     -1.522688     -3.037471
  N      -2.515361     -2.284349     -4.884742
  O      -3.684994     -2.551118     -5.134913
  O      -1.586141     -2.574949     -5.628687
  C       0.809303     -0.303199     -1.722619
  C       1.379138     -1.245486     -0.676666
  H       0.614467     -1.438642      0.074691
  H       2.242882     -0.808555     -0.177301
  H       1.678020     -2.203848     -1.111459
  N       1.719871     -0.017825     -2.787738
  O       2.927911     -0.256714     -2.628019
  O       1.308501      0.568524     -3.804621
  H       0.757636      0.887847     -1.136158
  C      -0.361460      0.449691      3.904235
  C       0.975360      0.182152      4.500583
  C       2.022157      1.199470      4.021301
  C       1.973045      1.369557      2.511899
  N       0.609191      1.780136      2.068075
  C      -0.446334      0.793880      2.463399
  H      -1.267731      0.158419      4.417176
  H       0.919568      0.175381      5.590182
  H       1.312473     -0.825006      4.202483
  H       3.024902      0.879416      4.307992
  H       1.839903      2.167912      4.495771
  H       2.667762      2.132083      2.163734
  H       2.198114      0.434057      1.997323
  H       0.385298      2.686779      2.477723
  H      -1.412421      1.215706      2.190170
  H      -0.276344     -0.084325      1.827049
  H       0.610803      1.900722      0.973160
  H      -0.029832      2.487171     -0.862786
  O       0.735917      2.017379     -0.509212
41
Coordinates from ORCA-job /home/rudenko/2025/kie/for_orca/m-o2nc6h4chno2ch3_piperidine/orca/ts_opt/ts_opt E -1047.475801091196
  C      -2.914645     -0.634596     -1.519445
  C      -1.601148     -0.263011     -1.253132
  C      -0.556969     -0.584687     -2.126804
  C      -0.864968     -1.294406     -3.285863
  C      -2.182128     -1.650952     -3.537971
  C      -3.224419     -1.334306     -2.674769
  H      -3.701323     -0.369121     -0.825827
  H      -1.380590      0.294561     -0.354359
  H      -0.097743     -1.572054     -3.990590
  H      -4.236764     -1.626341     -2.906744
  N      -2.483750     -2.401030     -4.760965
  O      -3.648815     -2.712159     -4.978551
  O      -1.561654     -2.679531     -5.518337
  C       0.842812     -0.220845     -1.739184
  C       1.475588     -1.141237     -0.709588
  H       0.749793     -1.336352      0.079067
  H       2.354206     -0.685325     -0.255817
  H       1.769873     -2.099983     -1.146632
  N       1.707007      0.085615     -2.836549
  O       2.925647     -0.123241     -2.721169
  O       1.241964      0.646197     -3.844975
  H       0.780560      0.970580     -1.151586
  C      -0.452784      0.536101      3.875349
  C       0.855224      0.097414      4.432704
  C       2.001482      1.006430      3.964468
  C       1.945196      1.232504      2.462806
  N       0.629905      1.810176      2.059380
  C      -0.524477      0.938534      2.449147
  H      -1.376994      0.330987      4.397856
  H       0.819043      0.057739      5.522395
  H       1.070396     -0.929703      4.092693
  H       2.966446      0.565521      4.218567
  H       1.938786      1.972396      4.473990
  H       2.716919      1.922223      2.124994
  H       2.053600      0.295803      1.914671
  H       0.518783      2.724441      2.498233
  H      -1.440733      1.477069      2.211567
  H      -0.469063      0.068509      1.781439
  H       0.626854      1.960510      0.966188
  H      -0.020227      2.566282     -0.868180
  O       0.749108      2.099288     -0.518477
41
Coordinates from ORCA-job /home/rudenko/2025/kie/for_orca/m-o2nc6h4chno2ch3_piperidine/orca/ts_opt/ts_opt E -1047.475705260443
  C      -2.894264     -0.600563     -1.511288
  C      -1.586024     -0.190648     -1.276064
  C      -0.541448     -0.544544     -2.135308
  C      -0.843342     -1.325645     -3.249400
  C      -2.154740     -1.721027     -3.471128
  C      -3.197724     -1.373404     -2.620713
  H      -3.681517     -0.308236     -0.829248
  H      -1.371514      0.425939     -0.415169
  H      -0.074293     -1.632303     -3.940520
  H      -4.205595     -1.697944     -2.827538
  N      -2.448541     -2.551542     -4.642857
  O      -3.607766     -2.902031     -4.829328
  O      -1.527895     -2.845883     -5.395849
  C       0.858102     -0.148710     -1.779326
  C       1.540396     -1.076327     -0.789679
  H       0.857727     -1.264668      0.038857
  H       2.447326     -0.629321     -0.386564
  H       1.801393     -2.036861     -1.243995
  N       1.677388      0.195135     -2.900180
  O       2.906370      0.038846     -2.817769
  O       1.169457      0.796562     -3.863148
  H       0.796467      1.028436     -1.164369
  C      -0.507178      0.604775      3.883684
  C       0.765182      0.044791      4.414023
  C       1.979038      0.861508      3.945879
  C       1.923028      1.120087      2.449465
  N       0.656381      1.815081      2.073934
  C      -0.562789      1.038203      2.466308
  H      -1.439111      0.468598      4.414917
  H       0.739646     -0.013470      5.503167
  H       0.886805     -0.989714      4.051084
  H       2.906056      0.334954      4.177537
  H       2.006410      1.818942      4.473927
  H       2.746705      1.748046      2.113750
  H       1.944863      0.188614      1.884649
  H       0.629901      2.727416      2.530578
  H      -1.432621      1.657332      2.252227
  H      -0.590997      0.177753      1.784437
  H       0.652464      1.988513      0.984017
  H       0.006487      2.626674     -0.849012
  O       0.769767      2.146637     -0.503985
41
Coordinates from ORCA-job /home/rudenko/2025/kie/for_orca/m-o2nc6h4chno2ch3_piperidine/orca/ts_opt/ts_opt E -1047.475697283341
  C      -2.875995     -0.562865     -1.500393
  C      -1.573351     -0.121545     -1.290563
  C      -0.526713     -0.503874     -2.133734
  C      -0.818903     -1.344865     -3.206073
  C      -2.125142     -1.768053     -3.405684
  C      -3.170468     -1.394577     -2.568966
  H      -3.665813     -0.248312     -0.831353
  H      -1.365784      0.542411     -0.463476
  H      -0.045564     -1.674286     -3.882986
  H      -4.173963     -1.743637     -2.756154
  N      -2.411038     -2.657253     -4.535745
  O      -3.562680     -3.046254     -4.690342
  O      -1.488898     -2.973804     -5.277617
  C       0.871917     -0.079771     -1.808505
  C       1.600661     -1.014778     -0.860044
  H       0.963264     -1.194042      0.006279
  H       2.533414     -0.576304     -0.510222
  H       1.825603     -1.978749     -1.326803
  N       1.641968      0.298028     -2.955088
  O       2.870578      0.118847     -2.949462
  O       1.073143      0.844302     -3.917164
  H       0.814050      1.078976     -1.171916
  C      -0.550864      0.646302      3.882516
  C       0.686783      0.000862      4.397182
  C       1.946464      0.748757      3.934596
  C       1.899047      1.033426      2.442410
  N       0.675842      1.810941      2.085222
  C      -0.586487      1.104162      2.472239
  H      -1.487289      0.558679      4.416107
  H       0.662583     -0.073212      5.485382
  H       0.742653     -1.033158      4.017079
  H       2.840455      0.162526      4.152283
  H       2.035555      1.694015      4.477198
  H       2.758140      1.614715      2.111570
  H       1.860321      0.111171      1.863897
  H       0.708405      2.714665      2.557706
  H      -1.417582      1.778934      2.273183
  H      -0.671234      0.257041      1.777827
  H       0.676667      2.005661      1.000613
  H       0.036511      2.678809     -0.825616
  O       0.793745      2.186105     -0.485386
41
Coordinates from ORCA-job /home/rudenko/2025/kie/for_orca/m-o2nc6h4chno2ch3_piperidine/orca/ts_opt/ts_opt E -1047.475801968641
  C      -2.867729     -0.539691     -1.507667
  C      -1.571594     -0.068236     -1.319916
  C      -0.520608     -0.476405     -2.143997
  C      -0.798118     -1.374834     -3.172763
  C      -2.098406     -1.822539     -3.355381
  C      -3.148860     -1.425047     -2.535696
  H      -3.662554     -0.206126     -0.853939
  H      -1.372296      0.635203     -0.523414
  H      -0.018061     -1.723396     -3.832942
  H      -4.147446     -1.795941     -2.706692
  N      -2.373605     -2.759658     -4.449343
  O      -3.517693     -3.179219     -4.579588
  O      -1.449974     -3.086212     -5.184938
  C       0.877984     -0.028562     -1.845488
  C       1.650569     -0.981388     -0.951848
  H       1.063121     -1.156518     -0.050000
  H       2.609348     -0.558689     -0.657103
  H       1.830803     -1.945894     -1.437240
  N       1.599050      0.386270     -3.012557
  O       2.834727      0.275700     -3.037778
  O       0.985477      0.969778     -3.922883
  H       0.822762      1.106357     -1.181097
  C      -0.580652      0.712100      3.899775
  C       0.615462     -0.014796      4.404204
  C       1.918709      0.650772      3.935346
  C       1.879828      0.942230      2.443900
  N       0.708483      1.800647      2.100123
  C      -0.594956      1.176117      2.490852
  H      -1.517949      0.682667      4.438263
  H       0.593369     -0.091648      5.492231
  H       0.600906     -1.048723      4.019881
  H       2.773882      0.006651      4.145052
  H       2.073029      1.586421      4.479957
  H       2.772941      1.466413      2.107982
  H       1.775478      0.026085      1.863641
  H       0.804725      2.695570      2.580126
  H      -1.381731      1.903790      2.298151
  H      -0.737594      0.338626      1.794264
  H       0.710743      2.007729      1.019047
  H       0.049102      2.706139     -0.788050
  O       0.809330      2.208257     -0.462472
41
Coordinates from ORCA-job /home/rudenko/2025/kie/for_orca/m-o2nc6h4chno2ch3_piperidine/orca/ts_opt/ts_opt E -1047.475938435410
  C      -2.889707     -0.566116     -1.521904
  C      -1.586111     -0.131660     -1.302528
  C      -0.536829     -0.515369     -2.141699
  C      -0.826206     -1.351106     -3.218864
  C      -2.133919     -1.763551     -3.430664
  C      -3.182064     -1.389330     -2.597510
  H      -3.681960     -0.251372     -0.855827
  H      -1.379363      0.525607     -0.469520
  H      -0.050489     -1.679161     -3.893862
  H      -4.186616     -1.730272     -2.793800
  N      -2.419722     -2.637920     -4.572617
  O      -3.573842     -3.014582     -4.739905
  O      -1.495704     -2.953411     -5.312611
  C       0.862828     -0.100754     -1.807766
  C       1.581161     -1.043594     -0.859536
  H       0.938388     -1.220257      0.003245
  H       2.515607     -0.612588     -0.504269
  H       1.800790     -2.008162     -1.328004
  N       1.639295      0.273221     -2.950481
  O       2.871935      0.127954     -2.922320
  O       1.081370      0.859582     -3.894741
  H       0.808105      1.057793     -1.167970
  C      -0.535271      0.638188      3.893238
  C       0.712556      0.023330      4.420641
  C       1.959316      0.790965      3.954946
  C       1.912884      1.057209      2.459205
  N       0.676567      1.806891      2.089406
  C      -0.573487      1.079814      2.477629
  H      -1.472242      0.538055      4.423677
  H       0.684789     -0.038942      5.509487
  H       0.790666     -1.013698      4.052668
  H       2.863774      0.225209      4.183126
  H       2.026939      1.744006      4.486900
  H       2.761685      1.651372      2.124908
  H       1.894147      0.127528      1.891048
  H       0.689757      2.714838      2.553809
  H      -1.416683      1.736003      2.267490
  H      -0.638433      0.224079      1.791873
  H       0.677532      1.992816      1.004662
  H       0.036405      2.661055     -0.821076
  O       0.792151      2.166331     -0.480484
41
Coordinates from ORCA-job /home/rudenko/2025/kie/for_orca/m-o2nc6h4chno2ch3_piperidine/orca/ts_opt/ts_opt E -1047.476082073587
  C      -2.897062     -0.536909     -1.534422
  C      -1.591285     -0.110511     -1.310720
  C      -0.541209     -0.508643     -2.141803
  C      -0.829800     -1.353034     -3.212476
  C      -2.139258     -1.757238     -3.428456
  C      -3.189112     -1.366853     -2.604772
  H      -3.690711     -0.212273     -0.874802
  H      -1.382529      0.548129     -0.478897
  H      -0.051924     -1.693388     -3.878765
  H      -4.195086     -1.702263     -2.803570
  N      -2.425815     -2.636749     -4.566212
  O      -3.581286     -3.008567     -4.735347
  O      -1.500580     -2.962639     -5.300148
  C       0.861079     -0.101364     -1.805525
  C       1.571733     -1.052578     -0.859462
  H       0.928096     -1.223362      0.003776
  H       2.510834     -0.631065     -0.505197
  H       1.779661     -2.019439     -1.328334
  N       1.641637      0.269707     -2.948557
  O       2.872210      0.110998     -2.923399
  O       1.084308      0.841211     -3.902005
  H       0.809302      1.050382     -1.169199
  C      -0.531061      0.604265      3.878796
  C       0.725618      0.023716      4.424240
  C       1.958762      0.820487      3.970608
  C       1.923766      1.080208      2.473267
  N       0.673661      1.798017      2.087862
  C      -0.562163      1.039467      2.460830
  H      -1.471868      0.481577      4.397626
  H       0.685906     -0.034795      5.512931
  H       0.834394     -1.012601      4.062144
  H       2.874149      0.278365      4.212184
  H       1.995977      1.776985      4.499442
  H       2.761474      1.693783      2.146055
  H       1.934049      0.148050      1.908237
  H       0.658240      2.706452      2.551868
  H      -1.419513      1.672063      2.236073
  H      -0.594325      0.180443      1.776942
  H       0.679866      1.982884      1.002481
  H       0.035303      2.654343     -0.815291
  O       0.794562      2.162737     -0.478004
41
Coordinates from ORCA-job /home/rudenko/2025/kie/for_orca/m-o2nc6h4chno2ch3_piperidine/orca/ts_opt/ts_opt E -1047.476662990407
  C      -2.927639     -0.412501     -1.611473
  C      -1.620448      0.006565     -1.377483
  C      -0.557697     -0.467356     -2.148413
  C      -0.828762     -1.382150     -3.164435
  C      -2.138281     -1.778562     -3.391500
  C      -3.203030     -1.311137     -2.628884
  H      -3.734402     -0.031080     -0.999973
  H      -1.419463      0.710955     -0.582399
  H      -0.035354     -1.783338     -3.776844
  H      -4.209145     -1.643261     -2.832997
  N      -2.409916     -2.726052     -4.476930
  O      -3.563600     -3.105685     -4.640846
  O      -1.474234     -3.097795     -5.174892
  C       0.849323     -0.067900     -1.807862
  C       1.552390     -1.046973     -0.884482
  H       0.928668     -1.189473     -0.001486
  H       2.518017     -0.662687     -0.560938
  H       1.702039     -2.023043     -1.356106
  N       1.627057      0.299668     -2.961128
  O       2.856269      0.149381     -2.937934
  O       1.061094      0.860846     -3.913075
  H       0.808695      1.051703     -1.176875
  C      -0.522278      0.524516      3.845385
  C       0.742089     -0.007254      4.422505
  C       1.956489      0.835043      4.000244
  C       1.947607      1.099698      2.502874
  N       0.681598      1.774335      2.095358
  C      -0.530802      0.961195      2.427338
  H      -1.470963      0.361578      4.338287
  H       0.677213     -0.067785      5.509919
  H       0.898754     -1.038744      4.064306
  H       2.884823      0.326308      4.263941
  H       1.945193      1.790894      4.531530
  H       2.770280      1.743265      2.195645
  H       2.001678      0.170610      1.934149
  H       0.618825      2.674262      2.571643
  H      -1.407873      1.555751      2.176105
  H      -0.503321      0.104278      1.740379
  H       0.698231      1.974469      1.007801
  H       0.029227      2.676362     -0.768189
  O       0.801650      2.191092     -0.452263
41
Coordinates from ORCA-job /home/rudenko/2025/kie/for_orca/m-o2nc6h4chno2ch3_piperidine/orca/ts_opt/ts_opt E -1047.477740516047
  C      -2.946233     -0.289593     -1.673694
  C      -1.638908      0.128696     -1.435506
  C      -0.566838     -0.415580     -2.142334
  C      -0.823137     -1.402598     -3.092081
  C      -2.131576     -1.798170     -3.324047
  C      -3.207841     -1.259080     -2.627302
  H      -3.763195      0.145371     -1.113715
  H      -1.444274      0.880911     -0.683511
  H      -0.017720     -1.860046     -3.647272
  H      -4.213346     -1.593005     -2.831873
  N      -2.389380     -2.818692     -4.344351
  O      -3.539617     -3.215051     -4.491607
  O      -1.443934     -3.237566     -5.001281
  C       0.843429     -0.019498     -1.799440
  C       1.537960     -1.018882     -0.890663
  H       0.934770     -1.130201      0.011113
  H       2.525888     -0.668477     -0.598911
  H       1.633275     -2.003474     -1.357845
  N       1.619785      0.334817     -2.968619
  O       2.846130      0.183944     -2.950140
  O       1.045050      0.875105     -3.923971
  H       0.813490      1.063839     -1.188764
  C      -0.523109      0.437119      3.781287
  C       0.741975     -0.063932      4.384535
  C       1.942201      0.818522      4.005060
  C       1.961763      1.108040      2.512068
  N       0.687187      1.754322      2.088209
  C      -0.505136      0.894151      2.369622
  H      -1.478931      0.235974      4.245562
  H       0.651276     -0.140631      5.469150
  H       0.937996     -1.085744      4.018104
  H       2.877738      0.332423      4.285556
  H       1.889905      1.765541      4.549734
  H       2.773684      1.778211      2.234323
  H       2.053553      0.190409      1.929291
  H       0.583443      2.639037      2.585297
  H      -1.394901      1.460417      2.098329
  H      -0.425142      0.049855      1.671025
  H       0.716375      1.981557      0.999002
  H       0.023777      2.717934     -0.720812
  O       0.812564      2.244027     -0.429527
41
Coordinates from ORCA-job /home/rudenko/2025/kie/for_orca/m-o2nc6h4chno2ch3_piperidine/orca/ts_opt/ts_opt E -1047.479037146778
  C      -2.964105     -0.190154     -1.751171
  C      -1.660331      0.234893     -1.503528
  C      -0.575297     -0.365947     -2.139474
  C      -0.810800     -1.419708     -3.019804
  C      -2.114551     -1.824836     -3.258795
  C      -3.205605     -1.227046     -2.636585
  H      -3.793569      0.289216     -1.248867
  H      -1.478607      1.033582     -0.797543
  H       0.008131     -1.923127     -3.512371
  H      -4.207607     -1.569971     -2.843811
  N      -2.349442     -2.920451     -4.203888
  O      -3.493395     -3.339751     -4.334852
  O      -1.388334     -3.386257     -4.804226
  C       0.833422      0.037573     -1.788791
  C       1.527679     -0.981215     -0.900461
  H       0.944964     -1.078787      0.015701
  H       2.530962     -0.655672     -0.634509
  H       1.583583     -1.966318     -1.371313
  N       1.609241      0.388057     -2.973846
  O       2.832536      0.239894     -2.959629
  O       1.024114      0.910617     -3.928370
  H       0.804456      1.083592     -1.196035
  C      -0.525943      0.394053      3.742733
  C       0.733941     -0.121652      4.345613
  C       1.940308      0.762764      3.990408
  C       1.969457      1.082124      2.503479
  N       0.700503      1.742041      2.086555
  C      -0.494218      0.876261      2.339566
  H      -1.485479      0.185245      4.195950
  H       0.636037     -0.217402      5.428138
  H       0.928595     -1.137555      3.962380
  H       2.871990      0.267769      4.268469
  H       1.887959      1.699613      4.552543
  H       2.786707      1.753125      2.243480
  H       2.060149      0.175911      1.903126
  H       0.594171      2.612914      2.606677
  H      -1.381982      1.445082      2.067001
  H      -0.404799      0.044904      1.627438
  H       0.730514      1.999463      0.991720
  H      -0.008054      2.761260     -0.660445
  O       0.802698      2.305895     -0.402663
41
Coordinates from ORCA-job /home/rudenko/2025/kie/for_orca/m-o2nc6h4chno2ch3_piperidine/orca/ts_opt/ts_opt E -1047.480072465654
  C      -2.991437     -0.119685     -1.864355
  C      -1.694670      0.310046     -1.588811
  C      -0.592260     -0.333471     -2.147638
  C      -0.801549     -1.437358     -2.971104
  C      -2.098107     -1.849330     -3.235016
  C      -3.206893     -1.207708     -2.693259
  H      -3.835952      0.393470     -1.424431
  H      -1.533012      1.142256     -0.917479
  H       0.032133     -1.974776     -3.398826
  H      -4.203071     -1.557058     -2.917630
  N      -2.305258     -3.002709     -4.116093
  O      -3.443153     -3.438728     -4.244358
  O      -1.326180     -3.507395     -4.652796
  C       0.809056      0.077086     -1.767569
  C       1.494430     -0.962350     -0.895224
  H       0.916741     -1.059390      0.023737
  H       2.504972     -0.656112     -0.634342
  H       1.528348     -1.942347     -1.376804
  N       1.602632      0.431336     -2.955902
  O       2.822490      0.284654     -2.928114
  O       1.021834      0.943331     -3.914442
  H       0.769808      1.097723     -1.184238
  C      -0.505980      0.383652      3.746874
  C       0.753970     -0.156864      4.328413
  C       1.968395      0.715600      3.970487
  C       1.983325      1.055497      2.487567
  N       0.719572      1.738073      2.095688
  C      -0.481435      0.881667      2.348925
  H      -1.462881      0.180261      4.208243
  H       0.667755     -0.265536      5.410764
  H       0.929872     -1.170238      3.929661
  H       2.896338      0.204643      4.232003
  H       1.934845      1.645643      4.545246
  H       2.807659      1.717622      2.226628
  H       2.054089      0.156364      1.874419
  H       0.629214      2.599033      2.634429
  H      -1.366142      1.460710      2.088173
  H      -0.405441      0.056911      1.627721
  H       0.732458      2.020044      0.991219
  H      -0.083153      2.784824     -0.577341
  O       0.756641      2.360612     -0.364427
41
Coordinates from ORCA-job /home/rudenko/2025/kie/for_orca/m-o2nc6h4chno2ch3_piperidine/orca/ts_opt/ts_opt E -1047.478641761443
  C      -3.017331     -0.038586     -1.918248
  C      -1.716217      0.368169     -1.623719
  C      -0.607251     -0.322718     -2.130878
  C      -0.810479     -1.445549     -2.918537
  C      -2.110134     -1.831546     -3.201415
  C      -3.227300     -1.147045     -2.711760
  H      -3.868912      0.510357     -1.520168
  H      -1.556089      1.219230     -0.977421
  H       0.030630     -2.011861     -3.304278
  H      -4.226194     -1.476875     -2.949555
  N      -2.311480     -3.001316     -4.047040
  O      -3.450570     -3.418740     -4.178689
  O      -1.324272     -3.548922     -4.542837
  C       0.799247      0.071632     -1.738565
  C       1.458326     -0.973468     -0.852775
  H       0.877504     -1.045661      0.065480
  H       2.474199     -0.685349     -0.597018
  H       1.465807     -1.960525     -1.317501
  N       1.613294      0.382142     -2.940550
  O       2.832860      0.256980     -2.872097
  O       1.060817      0.924882     -3.886341
  H       0.770538      1.076935     -1.195009
  C      -0.490424      0.270630      3.671977
  C       0.800580     -0.194739      4.290440
  C       1.975263      0.765403      3.983044
  C       2.010557      1.117959      2.500420
  N       0.706328      1.728131      2.074540
  C      -0.458040      0.783349      2.276869
  H      -1.455150     -0.001160      4.100310
  H       0.691196     -0.316007      5.372390
  H       1.057840     -1.203218      3.882884
  H       2.936132      0.309846      4.271363
  H       1.861709      1.697780      4.569462
  H       2.805653      1.838682      2.273699
  H       2.159256      0.220789      1.877006
  H       0.542895      2.588285      2.622995
  H      -1.385296      1.310317      1.990811
  H      -0.303603     -0.044164      1.543025
  H       0.732108      2.019771      0.958365
  H      -0.097846      2.805565     -0.548320
  O       0.753849      2.400613     -0.352356
41
Coordinates from ORCA-job /home/rudenko/2025/kie/for_orca/m-o2nc6h4chno2ch3_piperidine/orca/ts_opt/ts_opt E -1047.477551864183
  C      -3.062971     -0.046817     -2.007738
  C      -1.773964      0.401390     -1.703272
  C      -0.649698     -0.278007     -2.184299
  C      -0.825007     -1.416771     -2.961490
  C      -2.111283     -1.858446     -3.246607
  C      -3.243419     -1.199539     -2.775930
  H      -3.927986      0.488370     -1.629875
  H      -1.638494      1.270188     -1.068812
  H       0.029691     -1.973870     -3.325847
  H      -4.232762     -1.572652     -3.011985
  N      -2.274096     -3.073042     -4.064620
  O      -3.391185     -3.626650     -4.149966
  O      -1.266043     -3.624793     -4.521125
  C       0.750335      0.105783     -1.774933
  C       1.398002     -1.001466     -0.953327
  H       0.825295     -1.103580     -0.040564
  H       2.420683     -0.758534     -0.690984
  H       1.378522     -1.966286     -1.470596
  N       1.559972      0.458723     -2.975629
  O       2.771199      0.298387     -2.940487
  O       0.994369      1.026989     -3.898693
  H       0.753247      1.084275     -1.185583
  C      -0.478181      0.331247      3.719812
  C       0.784114     -0.168093      4.365881
  C       1.995850      0.748539      4.057414
  C       2.064153      1.083614      2.574211
  N       0.786268      1.730613      2.120353
  C      -0.402950      0.822933      2.320976
  H      -1.458436      0.099574      4.134948
  H       0.651507     -0.267135      5.443098
  H       1.011403     -1.187605      3.987256
  H       2.934829      0.267336      4.369077
  H       1.903641      1.688336      4.618240
  H       2.885789      1.775490      2.349199
  H       2.193036      0.175494      1.973551
  H       0.638099      2.593956      2.649924
  H      -1.304402      1.369480      2.009920
  H      -0.259738     -0.011514      1.613963
  H       0.823092      2.019770      0.990509
  H      -0.050676      2.864080     -0.426128
  O       0.798193      2.430233     -0.289841
41
Coordinates from ORCA-job /home/rudenko/2025/kie/for_orca/m-o2nc6h4chno2ch3_piperidine/orca/ts_opt/ts_opt E -1047.476431505135
  C      -3.094130     -0.106515     -2.065098
  C      -1.818446      0.325080     -1.715553
  C      -0.674120     -0.344444     -2.193803
  C      -0.821336     -1.472628     -3.010351
  C      -2.095817     -1.884059     -3.345279
  C      -3.246294     -1.222303     -2.883492
  H      -3.972964      0.434381     -1.695033
  H      -1.708779      1.193022     -1.060283
  H       0.043528     -2.021558     -3.382418
  H      -4.224646     -1.568248     -3.165475
  N      -2.228569     -3.034112     -4.224058
  O      -3.341298     -3.501212     -4.383652
  O      -1.212517     -3.603361     -4.659504
  C       0.708696      0.062094     -1.756624
  C       1.376758     -1.031289     -0.931707
  H       0.792340     -1.167496     -0.028673
  H       2.384242     -0.759380     -0.646487
  H       1.406445     -1.983578     -1.460433
  N       1.521835      0.464263     -2.929620
  O       2.733043      0.284188     -2.913935
  O       0.938405      0.994085     -3.879086
  H       0.681745      1.060613     -1.143263
  C      -0.438658      0.441767      3.839413
  C       0.834638     -0.100688      4.434656
  C       2.072587      0.751250      4.050160
  C       2.081194      1.049853      2.562324
  N       0.803039      1.745122      2.159187
  C      -0.412046      0.899559      2.433329
  H      -1.408798      0.269070      4.303825
  H       0.748772     -0.167493      5.516402
  H       1.001204     -1.141718      4.069344
  H       3.008704      0.232143      4.324865
  H       2.048882      1.711041      4.597051
  H       2.920053      1.700441      2.285810
  H       2.143787      0.118666      1.972626
  H       0.718019      2.629360      2.682069
  H      -1.303592      1.483399      2.155667
  H      -0.340312      0.043055      1.737727
  H       0.791393      2.012370      1.031207
  H      -0.133372      2.822182     -0.408109
  O       0.716386      2.383079     -0.273727
41
Coordinates from ORCA-job /home/rudenko/2025/kie/for_orca/m-o2nc6h4chno2ch3_piperidine/orca/ts_opt/ts_opt E -1047.479392604526
  C      -3.050936     -0.151993     -1.968543
  C      -1.768153      0.285619     -1.646857
  C      -0.640023     -0.352910     -2.170503
  C      -0.810450     -1.450493     -3.009959
  C      -2.091979     -1.875261     -3.318337
  C      -3.226444     -1.239467     -2.812167
  H      -3.914365      0.365505     -1.559899
  H      -1.643524      1.132474     -0.977851
  H       0.040553     -1.977423     -3.419696
  H      -4.211272     -1.590422     -3.074799
  N      -2.245719     -3.025933     -4.216901
  O      -3.367449     -3.490660     -4.389567
  O      -1.235275     -3.551213     -4.692688
  C       0.744380      0.066802     -1.754675
  C       1.420690     -0.979062     -0.888185
  H       0.826720     -1.105776      0.011044
  H       2.415562     -0.667904     -0.598730
  H       1.484293     -1.944674     -1.387799
  N       1.561601      0.450336     -2.917301
  O       2.770636      0.273852     -2.881151
  O       1.002643      0.973146     -3.875659
  H       0.694772      1.087277     -1.158804
  C      -0.456904      0.467974      3.825220
  C       0.798223     -0.120909      4.386806
  C       2.044820      0.694697      3.988810
  C       2.034210      1.014659      2.501749
  N       0.783122      1.753407      2.133182
  C      -0.447972      0.952246      2.423485
  H      -1.414191      0.320638      4.309906
  H       0.732008     -0.204337      5.471446
  H       0.923173     -1.152395      4.003942
  H       2.960464      0.144360      4.235603
  H       2.064735      1.638306      4.549935
  H       2.881414      1.640692      2.216856
  H       2.054633      0.099489      1.900557
  H       0.748134      2.627624      2.666577
  H      -1.315958      1.571891      2.177961
  H      -0.427182      0.111533      1.710666
  H       0.754345      2.028871      1.018395
  H      -0.161821      2.803846     -0.490418
  O       0.688483      2.375589     -0.321650
41
Coordinates from ORCA-job /home/rudenko/2025/kie/for_orca/m-o2nc6h4chno2ch3_piperidine/orca/ts_opt/ts_opt E -1047.479720599040
  C      -3.017871     -0.161359     -1.894469
  C      -1.726900      0.258743     -1.582480
  C      -0.610329     -0.374781     -2.135104
  C      -0.801881     -1.450918     -2.993933
  C      -2.091506     -1.859338     -3.292191
  C      -3.212948     -1.240014     -2.753740
  H      -3.872604      0.352721     -1.464596
  H      -1.586872      1.092795     -0.902772
  H       0.041877     -1.974469     -3.425820
  H      -4.204426     -1.579400     -3.009936
  N      -2.273062     -2.976326     -4.214547
  O      -3.407291     -3.406318     -4.398741
  O      -1.277916     -3.500637     -4.719421
  C       0.783902      0.041522     -1.745811
  C       1.470525     -0.977716     -0.849830
  H       0.871833     -1.091830      0.051926
  H       2.465463     -0.648294     -0.561281
  H       1.545923     -1.956830     -1.332505
  N       1.580943      0.395015     -2.934808
  O       2.808771      0.263831     -2.901535
  O       0.997760      0.929754     -3.884392
  H       0.740605      1.081858     -1.167225
  C      -0.477638      0.443125      3.805569
  C       0.786300     -0.143621      4.340752
  C       2.014888      0.695234      3.950514
  C       1.989947      1.041892      2.469018
  N       0.733443      1.770092      2.119650
  C      -0.491231      0.959054      2.413664
  H      -1.425335      0.272379      4.299288
  H       0.733891     -0.256739      5.424785
  H       0.918834     -1.161283      3.927909
  H       2.936424      0.152206      4.177182
  H       2.029600      1.623461      4.531888
  H       2.828080      1.681570      2.189567
  H       2.018120      0.142883      1.851961
  H       0.698324      2.635095      2.659464
  H      -1.364682      1.578032      2.197675
  H      -0.480424      0.136455      1.680423
  H       0.707040      2.053218      1.015855
  H      -0.096503      2.799388     -0.588613
  O       0.716923      2.359553     -0.353339
41
Coordinates from ORCA-job /home/rudenko/2025/kie/for_orca/m-o2nc6h4chno2ch3_piperidine/orca/ts_opt/ts_opt E -1047.479238604460
  C      -3.006897     -0.179953     -1.859373
  C      -1.711336      0.227827     -1.546424
  C      -0.601493     -0.378269     -2.127191
  C      -0.805030     -1.432210     -3.009630
  C      -2.100982     -1.827953     -3.308977
  C      -3.215983     -1.213478     -2.748100
  H      -3.855152      0.307139     -1.405815
  H      -1.560660      1.026296     -0.842827
  H       0.033629     -1.951781     -3.456007
  H      -4.211785     -1.544745     -3.002966
  N      -2.297529     -2.939790     -4.249973
  O      -3.438865     -3.354439     -4.447546
  O      -1.309984     -3.464025     -4.768737
  C       0.797537      0.020993     -1.739490
  C       1.463611     -1.000813     -0.830891
  H       0.840382     -1.122675      0.044634
  H       2.440493     -0.668462     -0.509852
  H       1.563020     -1.975982     -1.311341
  N       1.612513      0.346728     -2.916766
  O       2.822837      0.164465     -2.867723
  O       1.071601      0.886456     -3.878430
  H       0.773122      1.064353     -1.164773
  C      -0.475903      0.414896      3.809866
  C       0.814615     -0.146565      4.322377
  C       2.017428      0.734832      3.935507
  C       1.967932      1.095854      2.458054
  N       0.684865      1.791362      2.123701
  C      -0.522576      0.947780      2.424925
  H      -1.415063      0.209017      4.312008
  H       0.779563     -0.280216      5.405628
  H       0.971529     -1.156584      3.885028
  H       2.960224      0.212963      4.145219
  H       2.012918      1.659699      4.532849
  H       2.787556      1.763020      2.180099
  H       2.017669      0.201467      1.826587
  H       0.630103      2.658800      2.666829
  H      -1.417270      1.553808      2.234940
  H      -0.508875      0.131759      1.675450
  H       0.659923      2.073036      1.025374
  H      -0.021581      2.806975     -0.655858
  O       0.753896      2.338415     -0.360386
41
Coordinates from ORCA-job /home/rudenko/2025/kie/for_orca/m-o2nc6h4chno2ch3_piperidine/orca/ts_opt/ts_opt E -1047.477956550026
  C      -3.046579     -0.244721     -1.898552
  C      -1.762482      0.184346     -1.560228
  C      -0.635189     -0.396560     -2.141273
  C      -0.811656     -1.424547     -3.058794
  C      -2.095882     -1.831470     -3.386204
  C      -3.227243     -1.264266     -2.818759
  H      -3.908748      0.220662     -1.444256
  H      -1.634583      0.974194     -0.836493
  H       0.038042     -1.907594     -3.516362
  H      -4.213781     -1.604855     -3.098362
  N      -2.261122     -2.883956     -4.372310
  O      -3.389110     -3.346561     -4.581604
  O      -1.258057     -3.351031     -4.893605
  C       0.752290     -0.001676     -1.724784
  C       1.399289     -1.029611     -0.814096
  H       0.766149     -1.139348      0.065203
  H       2.388807     -0.710046     -0.488636
  H       1.484351     -2.012148     -1.300844
  N       1.579881      0.338584     -2.883059
  O       2.794194      0.164800     -2.821408
  O       1.046178      0.901453     -3.837733
  H       0.718741      1.042104     -1.146825
  C      -0.444328      0.488912      3.861410
  C       0.839385     -0.083601      4.385812
  C       2.068287      0.754588      3.956696
  C       2.020259      1.066527      2.471987
  N       0.744042      1.787507      2.131555
  C      -0.481912      0.978140      2.464080
  H      -1.391527      0.327206      4.373525
  H       0.802166     -0.172464      5.469769
  H       0.972135     -1.115031      3.991913
  H       3.003157      0.218682      4.179009
  H       2.087400      1.702138      4.516140
  H       2.856572      1.706568      2.165867
  H       2.044083      0.146211      1.872618
  H       0.716286      2.671713      2.654218
  H      -1.365214      1.596955      2.256701
  H      -0.485135      0.138581      1.745322
  H       0.699365      2.047361      1.031316
  H      -0.113801      2.755179     -0.610918
  O       0.705293      2.307077     -0.358039
41
Coordinates from ORCA-job /home/rudenko/2025/kie/for_orca/m-o2nc6h4chno2ch3_piperidine/orca/ts_opt/ts_opt E -1047.476523208857
  C      -3.035590     -0.259691     -1.861718
  C      -1.746262      0.158869     -1.522435
  C      -0.625599     -0.416360     -2.126643
  C      -0.814429     -1.421381     -3.065790
  C      -2.102363     -1.812037     -3.394611
  C      -3.227146     -1.262122     -2.804498
  H      -3.895571      0.202510     -1.391860
  H      -1.608220      0.940743     -0.782300
  H       0.028915     -1.891656     -3.539994
  H      -4.217166     -1.589770     -3.087039
  N      -2.279421     -2.820841     -4.406994
  O      -3.412879     -3.280799     -4.628672
  O      -1.280481     -3.273635     -4.940766
  C       0.768466     -0.034519     -1.723998
  C       1.416017     -1.067951     -0.814973
  H       0.772494     -1.189135      0.058927
  H       2.403380     -0.745823     -0.474324
  H       1.514041     -2.047003     -1.311913
  N       1.587874      0.293356     -2.889430
  O       2.802549      0.104109     -2.838907
  O       1.053089      0.866475     -3.840613
  H       0.755533      1.009996     -1.141525
  C      -0.449123      0.472393      3.873434
  C       0.852711     -0.075082      4.382103
  C       2.059341      0.796365      3.950471
  C       1.996417      1.111609      2.469238
  N       0.698903      1.802019      2.137622
  C      -0.510845      0.967642      2.480268
  H      -1.389888      0.283778      4.392793
  H       0.825866     -0.175937      5.464080
  H       1.007149     -1.098598      3.974704
  H       3.009461      0.282362      4.162826
  H       2.059158      1.740992      4.514136
  H       2.816842      1.773246      2.160768
  H       2.041242      0.194733      1.864925
  H       0.652478      2.688569      2.656121
  H      -1.408875      1.573952      2.291753
  H      -0.510038      0.133607      1.754427
  H       0.660214      2.053914      1.042978
  H      -0.023385      2.746213     -0.679432
  O       0.755142      2.264889     -0.363135
41
Coordinates from ORCA-job /home/rudenko/2025/kie/for_orca/m-o2nc6h4chno2ch3_piperidine/orca/ts_opt/ts_opt E -1047.474688618561
  C      -3.047074     -0.278449     -1.873165
  C      -1.767590      0.129733     -1.503930
  C      -0.632482     -0.421897     -2.107649
  C      -0.797071     -1.414098     -3.069864
  C      -2.075235     -1.808574     -3.426424
  C      -3.215466     -1.255462     -2.843802
  H      -3.917131      0.159320     -1.402263
  H      -1.647212      0.875724     -0.741425
  H       0.060656     -1.885408     -3.538812
  H      -4.197037     -1.590295     -3.144953
  N      -2.221617     -2.850834     -4.451676
  O      -3.347132     -3.278925     -4.713879
  O      -1.213386     -3.390205     -4.941777
  C       0.751145     -0.034978     -1.688333
  C       1.382810     -1.051531     -0.758177
  H       0.718379     -1.174730      0.094597
  H       2.351287     -0.712891     -0.393643
  H       1.508152     -2.032143     -1.243432
  N       1.581142      0.284668     -2.840224
  O       2.797619      0.116021     -2.764138
  O       1.061959      0.873982     -3.786515
  H       0.735267      1.020852     -1.109117
  C      -0.420348      0.524049      3.917419
  C       0.880941     -0.099732      4.340108
  C       2.094371      0.731988      3.873794
  C       1.962338      1.089446      2.405265
  N       0.679516      1.842283      2.152296
  C      -0.541653      1.060712      2.542719
  H      -1.333680      0.362864      4.480435
  H       0.912405     -0.236756      5.419957
  H       0.966830     -1.115491      3.888529
  H       3.031191      0.171753      4.022223
  H       2.165218      1.659455      4.464328
  H       2.788614      1.723182      2.072236
  H       1.937345      0.186067      1.775182
  H       0.696791      2.722356      2.683272
  H      -1.414318      1.716828      2.422703
  H      -0.627072      0.250217      1.796474
  H       0.607662      2.103235      1.069180
  H       0.004854      2.765415     -0.721318
  O       0.739011      2.262246     -0.356202
41
Coordinates from ORCA-job /home/rudenko/2025/kie/for_orca/m-o2nc6h4chno2ch3_piperidine/orca/ts_opt/ts_opt E -1047.477433669344
  C      -3.019122     -0.154963     -1.878142
  C      -1.731554      0.249983     -1.541948
  C      -0.610783     -0.370961     -2.100694
  C      -0.795578     -1.430964     -2.985355
  C      -2.083591     -1.824453     -3.309526
  C      -3.209754     -1.199438     -2.768174
  H      -3.876930      0.337115     -1.441372
  H      -1.593152      1.048592     -0.838667
  H       0.052647     -1.951152     -3.416580
  H      -4.199328     -1.533180     -3.039206
  N      -2.260795     -2.940885     -4.254709
  O      -3.395923     -3.361185     -4.460079
  O      -1.270724     -3.518269     -4.742311
  C       0.779661      0.022730     -1.695762
  C       1.425336     -0.981804     -0.763247
  H       0.789076     -1.081859      0.114239
  H       2.407789     -0.644521     -0.440107
  H       1.521767     -1.968857     -1.228868
  N       1.606686      0.318751     -2.871986
  O       2.820507      0.151221     -2.799343
  O       1.077753      0.878675     -3.827102
  H       0.765659      1.068828     -1.142985
  C      -0.455386      0.397042      3.798277
  C       0.844921     -0.173248      4.278433
  C       2.038550      0.713596      3.882533
  C       1.957845      1.098299      2.414179
  N       0.664783      1.796656      2.113799
  C      -0.527739      0.948296      2.423848
  H      -1.382651      0.183092      4.311441
  H       0.829571     -0.322149      5.358428
  H       0.994623     -1.175793      3.823982
  H       2.986460      0.190721      4.065922
  H       2.042016      1.628387      4.491709
  H       2.767534      1.769772      2.131818
  H       1.997420      0.211000      1.766288
  H       0.608794      2.655592      2.667157
  H      -1.422980      1.553228      2.259654
  H      -0.523541      0.149271      1.666916
  H       0.629990      2.092690      1.017138
  H      -0.009074      2.828575     -0.676423
  O       0.759215      2.341568     -0.363174
41
Coordinates from ORCA-job /home/rudenko/2025/kie/for_orca/m-o2nc6h4chno2ch3_piperidine/orca/ts_opt/ts_opt E -1047.480271410343
  C      -3.005665     -0.063925     -1.902146
  C      -1.711535      0.340696     -1.588924
  C      -0.600728     -0.332251     -2.105129
  C      -0.800645     -1.432039     -2.928765
  C      -2.094589     -1.829292     -3.226393
  C      -3.211174     -1.162461     -2.722694
  H      -3.856432      0.471327     -1.499586
  H      -1.560495      1.181186     -0.935576
  H       0.040551     -1.994089     -3.325124
  H      -4.206110     -1.500119     -2.972350
  N      -2.288622     -3.002187     -4.100000
  O      -3.426946     -3.441926     -4.255373
  O      -1.303727     -3.557362     -4.594659
  C       0.794911      0.055100     -1.708298
  C       1.447597     -0.968206     -0.795451
  H       0.831939     -1.061149      0.093468
  H       2.441769     -0.653025     -0.493431
  H       1.514160     -1.955066     -1.267378
  N       1.616001      0.350857     -2.903009
  O       2.828320      0.167917     -2.854164
  O       1.065463      0.886324     -3.862428
  H       0.782899      1.090653     -1.159229
  C      -0.475144      0.296413      3.706384
  C       0.824223     -0.218808      4.247004
  C       1.995860      0.722965      3.915615
  C       1.970532      1.120617      2.448313
  N       0.666163      1.767044      2.093931
  C      -0.504704      0.860609      2.333948
  H      -1.417742      0.037334      4.172774
  H       0.762229     -0.375274      5.324958
  H       1.039652     -1.211123      3.797532
  H       2.954458      0.240593      4.141880
  H       1.929127      1.630899      4.531036
  H       2.766283      1.829173      2.211924
  H       2.079785      0.244893      1.797315
  H       0.547387      2.614656      2.660430
  H      -1.421451      1.428332      2.127376
  H      -0.427795      0.064874      1.569383
  H       0.660853      2.087175      0.986354
  H      -0.020011      2.869025     -0.613353
  O       0.773351      2.399642     -0.346167
41
Coordinates from ORCA-job /home/rudenko/2025/kie/for_orca/m-o2nc6h4chno2ch3_piperidine/orca/ts_opt/ts_opt E -1047.481663786444
  C      -2.996263     -0.003281     -1.915000
  C      -1.698653      0.414395     -1.628687
  C      -0.595769     -0.295201     -2.103806
  C      -0.807295     -1.445314     -2.861624
  C      -2.104918     -1.842712     -3.135885
  C      -3.213348     -1.142953     -2.669228
  H      -3.840253      0.561448     -1.545436
  H      -1.539764      1.297914     -1.028804
  H       0.024495     -2.025528     -3.230543
  H      -4.211234     -1.483553     -2.898940
  N      -2.311951     -3.046350     -3.946183
  O      -3.450798     -3.491178     -4.050041
  O      -1.336218     -3.635379     -4.429439
  C       0.804132      0.097742     -1.719254
  C       1.470947     -0.931099     -0.822734
  H       0.881418     -1.014664      0.087437
  H       2.479990     -0.627871     -0.552784
  H       1.509580     -1.917986     -1.294275
  N       1.618823      0.388268     -2.930341
  O       2.827414      0.203039     -2.888516
  O       1.063425      0.923075     -3.880768
  H       0.798130      1.119199     -1.180592
  C      -0.495882      0.214098      3.601627
  C       0.784642     -0.267206      4.206626
  C       1.945971      0.708461      3.940403
  C       1.981214      1.127599      2.477658
  N       0.682163      1.738565      2.065566
  C      -0.463435      0.790470      2.234551
  H      -1.452111     -0.079363      4.014229
  H       0.669885     -0.433088      5.278659
  H       1.048552     -1.249104      3.767906
  H       2.903506      0.248379      4.210361
  H       1.824886      1.605688      4.559397
  H       2.766973      1.860105      2.288570
  H       2.146521      0.265324      1.824762
  H       0.505788      2.566422      2.636731
  H      -1.382332      1.319266      1.975394
  H      -0.310923      0.009275      1.477491
  H       0.711794      2.088141      0.944988
  H      -0.032352      2.917065     -0.544019
  O       0.793250      2.467891     -0.335455
41
Coordinates from ORCA-job /home/rudenko/2025/kie/for_orca/m-o2nc6h4chno2ch3_piperidine/orca/ts_opt/ts_opt E -1047.482895070062
  C      -2.992101      0.076182     -1.970395
  C      -1.691903      0.477480     -1.689339
  C      -0.592569     -0.278035     -2.112813
  C      -0.809890     -1.455204     -2.817733
  C      -2.109575     -1.852910     -3.077641
  C      -3.215332     -1.104991     -2.661137
  H      -3.832744      0.681467     -1.643275
  H      -1.528396      1.382114     -1.133490
  H       0.019724     -2.073530     -3.148274
  H      -4.214935     -1.441074     -2.881900
  N      -2.320902     -3.108341     -3.817879
  O      -3.455825     -3.585411     -3.870181
  O      -1.348297     -3.676136     -4.306935
  C       0.808509      0.117831     -1.732123
  C       1.497602     -0.923834     -0.861938
  H       0.932738     -1.019123      0.061139
  H       2.512063     -0.627243     -0.613291
  H       1.524911     -1.902651     -1.344274
  N       1.611419      0.433133     -2.957432
  O       2.822541      0.250971     -2.940222
  O       1.027481      0.959050     -3.899688
  H       0.792488      1.124170     -1.189791
  C      -0.504890      0.164010      3.554717
  C       0.767600     -0.294887      4.193833
  C       1.920155      0.699828      3.963444
  C       1.989273      1.125892      2.505472
  N       0.691412      1.714799      2.062493
  C      -0.440746      0.744716      2.192990
  H      -1.468536     -0.147921      3.938364
  H       0.623896     -0.461867      5.261594
  H       1.062283     -1.273060      3.762301
  H       2.878143      0.255301      4.256901
  H       1.765181      1.592577      4.585126
  H       2.768042      1.872123      2.343197
  H       2.190159      0.269010      1.852184
  H       0.481815      2.533640      2.641399
  H      -1.364639      1.255138      1.905225
  H      -0.248972     -0.035777      1.439217
  H       0.737380      2.087390      0.925406
  H      -0.066603      2.935191     -0.465706
  O       0.782041      2.509982     -0.309544
41
Coordinates from ORCA-job /home/rudenko/2025/kie/for_orca/m-o2nc6h4chno2ch3_piperidine/orca/ts_opt/ts_opt E -1047.482715943398
  C      -3.019699      0.073954     -2.042163
  C      -1.724350      0.504515     -1.759938
  C      -0.616802     -0.258562     -2.141933
  C      -0.821585     -1.454335     -2.820896
  C      -2.115891     -1.866623     -3.087823
  C      -3.229238     -1.129147     -2.701168
  H      -3.865901      0.675928     -1.742382
  H      -1.573851      1.436823     -1.232384
  H       0.011624     -2.070709     -3.129757
  H      -4.225281     -1.488227     -2.922252
  N      -2.311565     -3.137250     -3.796863
  O      -3.436289     -3.633091     -3.816091
  O      -1.332875     -3.725749     -4.265194
  C       0.778249      0.134585     -1.741275
  C       1.462111     -0.932176     -0.900197
  H       0.909745     -1.027093      0.030823
  H       2.488715     -0.660810     -0.663598
  H       1.460636     -1.908067     -1.399540
  N       1.590030      0.480721     -2.954815
  O       2.796322      0.294592     -2.934514
  O       1.013070      1.019474     -3.888659
  H       0.762030      1.125427     -1.179114
  C      -0.494612      0.174704      3.551268
  C       0.763827     -0.286126      4.224176
  C       1.931488      0.698684      4.006077
  C       2.033655      1.110576      2.545876
  N       0.746603      1.706015      2.071313
  C      -0.394414      0.742391      2.186363
  H      -1.470726     -0.125890      3.915601
  H       0.595196     -0.437227      5.290796
  H       1.061266     -1.274181      3.814031
  H       2.881130      0.250343      4.325337
  H       1.769755      1.599731      4.614645
  H       2.824709      1.850101      2.392479
  H       2.243020      0.242699      1.908371
  H       0.529802      2.527815      2.645224
  H      -1.310766      1.254402      1.866128
  H      -0.188754     -0.052327      1.449409
  H       0.797269      2.085214      0.913519
  H      -0.091342      2.941889     -0.358386
  O       0.773690      2.537009     -0.272495
41
Coordinates from ORCA-job /home/rudenko/2025/kie/for_orca/m-o2nc6h4chno2ch3_piperidine/orca/ts_opt/ts_opt E -1047.479787236327
  C      -3.061513     -0.013466     -2.051726
  C      -1.775946      0.412330     -1.722782
  C      -0.650088     -0.295540     -2.154662
  C      -0.827811     -1.440231     -2.919643
  C      -2.111270     -1.851903     -3.232626
  C      -3.243022     -1.161322     -2.805832
  H      -3.923342      0.549677     -1.715898
  H      -1.646606      1.298779     -1.122454
  H       0.020720     -2.018655     -3.263641
  H      -4.230283     -1.513937     -3.067445
  N      -2.271907     -3.067156     -4.039034
  O      -3.388024     -3.594062     -4.121363
  O      -1.270329     -3.621805     -4.501944
  C       0.737541      0.083514     -1.724974
  C       1.385226     -0.993589     -0.867836
  H       0.795946     -1.088990      0.040131
  H       2.404325     -0.731835     -0.589159
  H       1.396664     -1.969138     -1.374868
  N       1.571524      0.433273     -2.907403
  O       2.779290      0.243227     -2.863820
  O       1.019671      0.990747     -3.848970
  H       0.725391      1.085233     -1.147335
  C      -0.456783      0.282339      3.686958
  C       0.825750     -0.200123      4.309525
  C       2.015112      0.744674      4.008189
  C       2.058636      1.108623      2.535761
  N       0.758001      1.731615      2.109185
  C      -0.408513      0.805404      2.304843
  H      -1.427179      0.025071      4.106196
  H       0.704474     -0.316834      5.385118
  H       1.076145     -1.210892      3.910878
  H       2.971642      0.275728      4.292900
  H       1.909172      1.671823      4.597803
  H       2.863610      1.821617      2.321201
  H       2.211473      0.212357      1.913634
  H       0.594628      2.580594      2.668273
  H      -1.326343      1.340958      2.018222
  H      -0.262206     -0.015663      1.579406
  H       0.773083      2.065776      0.965293
  H      -0.077259      2.889966     -0.423163
  O       0.760401      2.451818     -0.286940
41
Coordinates from ORCA-job /home/rudenko/2025/kie/for_orca/m-o2nc6h4chno2ch3_piperidine/orca/ts_opt/ts_opt E -1047.482992229026
  C      -3.019038      0.059295     -2.043628
  C      -1.721877      0.469344     -1.755161
  C      -0.616813     -0.283696     -2.154314
  C      -0.826964     -1.466205     -2.849688
  C      -2.123507     -1.863744     -3.120568
  C      -3.234237     -1.119108     -2.725737
  H      -3.863345      0.665798     -1.735567
  H      -1.567235      1.384894     -1.212811
  H       0.002942     -2.080722     -3.171497
  H      -4.230689     -1.458305     -2.955082
  N      -2.324138     -3.123381     -3.844399
  O      -3.449087     -3.630508     -3.861045
  O      -1.346692     -3.693318     -4.327106
  C       0.779433      0.114035     -1.757027
  C       1.478822     -0.949016     -0.920339
  H       0.930504     -1.054223      0.014238
  H       2.503634     -0.666822     -0.685477
  H       1.488562     -1.921574     -1.422723
  N       1.583739      0.483268     -2.970071
  O       2.797501      0.314300     -2.957672
  O       0.991277      1.022699     -3.900605
  H       0.751531      1.105733     -1.186211
  C      -0.494528      0.202831      3.592869
  C       0.763259     -0.253625      4.265757
  C       1.940162      0.719047      4.025052
  C       2.038590      1.107557      2.559585
  N       0.752412      1.701114      2.084694
  C      -0.391125      0.745014      2.220814
  H      -1.473590     -0.085828      3.965677
  H       0.595456     -0.385175      5.333464
  H       1.053083     -1.249933      3.872037
  H       2.889896      0.267741      4.344217
  H       1.788899      1.631409      4.621104
  H       2.833579      1.840248      2.390771
  H       2.241300      0.228894      1.935133
  H       0.542436      2.529647      2.649477
  H      -1.304632      1.251605      1.895892
  H      -0.188628     -0.060547      1.500077
  H       0.794418      2.070063      0.915685
  H      -0.117831      2.916250     -0.354506
  O       0.752518      2.514942     -0.275310
41
Coordinates from ORCA-job /home/rudenko/2025/kie/for_orca/m-o2nc6h4chno2ch3_piperidine/orca/ts_opt/ts_opt E -1047.485340977956
  C      -2.965171      0.154699     -2.032743
  C      -1.658748      0.579214     -1.794188
  C      -0.571984     -0.236574     -2.127839
  C      -0.808387     -1.480828     -2.721866
  C      -2.115289     -1.888864     -2.941683
  C      -3.207324     -1.102715     -2.596340
  H      -3.793846      0.800587     -1.771615
  H      -1.483541      1.551755     -1.337325
  H       0.005947     -2.136961     -2.997053
  H      -4.212407     -1.459017     -2.781130
  N      -2.353227     -3.199021     -3.555720
  O      -3.489070     -3.653703     -3.522696
  O      -1.403805     -3.790351     -4.048367
  C       0.828625      0.174810     -1.757252
  C       1.547124     -0.858502     -0.911678
  H       1.019345     -0.951188      0.031200
  H       2.566808     -0.554011     -0.704698
  H       1.560189     -1.839484     -1.388420
  N       1.626111      0.507087     -2.994701
  O       2.827427      0.322191     -2.983623
  O       1.036838      1.015449     -3.932284
  H       0.800951      1.163507     -1.217275
  C      -0.530527      0.082219      3.441738
  C       0.714764     -0.380683      4.126742
  C       1.859925      0.632762      3.976124
  C       1.981758      1.107217      2.531468
  N       0.705532      1.691274      2.042168
  C      -0.409764      0.705416      2.099261
  H      -1.501652     -0.256007      3.770880
  H       0.527070     -0.580070      5.184728
  H       1.040475     -1.342325      3.683638
  H       2.807231      0.188262      4.298164
  H       1.669158      1.502166      4.620632
  H       2.757090      1.865806      2.429115
  H       2.227094      0.272797      1.866272
  H       0.460475      2.484630      2.640438
  H      -1.325169      1.205750      1.775561
  H      -0.173719     -0.056842      1.340310
  H       0.772769      2.127167      0.858425
  H      -0.103533      3.012281     -0.335656
  O       0.764458      2.620101     -0.262712
41
Coordinates from ORCA-job /home/rudenko/2025/kie/for_orca/m-o2nc6h4chno2ch3_piperidine/orca/ts_opt/ts_opt E -1047.485941568558
  C      -2.884009      0.175678     -1.890899
  C      -1.560898      0.572899     -1.718554
  C      -0.508502     -0.248344     -2.101243
  C      -0.796264     -1.477568     -2.673677
  C      -2.121315     -1.859605     -2.824102
  C      -3.178139     -1.054721     -2.438476
  H      -3.683727      0.830417     -1.593715
  H      -1.343885      1.539437     -1.280574
  H      -0.010966     -2.142839     -2.979888
  H      -4.197399     -1.389439     -2.571719
  N      -2.421104     -3.173217     -3.401610
  O      -3.575305     -3.545486     -3.358652
  O      -1.509188     -3.801024     -3.924426
  C       0.911234      0.176593     -1.808312
  C       1.698007     -0.840656     -0.989364
  H       1.207173     -0.959417     -0.022538
  H       2.720316     -0.504380     -0.815628
  H       1.727869     -1.814461     -1.477234
  N       1.646858      0.508667     -3.097072
  O       2.855401      0.324393     -3.155575
  O       0.992944      0.993289     -4.017297
  H       0.880462      1.171111     -1.274778
  C      -0.584393     -0.004458      3.345477
  C       0.633696     -0.423576      4.073330
  C       1.736693      0.636584      3.980706
  C       1.912415      1.138308      2.549870
  N       0.651202      1.675203      2.013494
  C      -0.429851      0.651111      2.018950
  H      -1.552572     -0.388781      3.631615
  H       0.404824     -0.651695      5.116723
  H       1.013443     -1.352626      3.637067
  H       2.674357      0.231733      4.340334
  H       1.482582      1.478822      4.616123
  H       2.658047      1.928200      2.490315
  H       2.219606      0.335827      1.894757
  H       0.360383      2.449026      2.600828
  H      -1.344847      1.122361      1.674396
  H      -0.144344     -0.081144      1.257819
  H       0.756666      2.123553      0.831707
  H      -0.089665      3.022043     -0.379219
  O       0.792194      2.628181     -0.278957
41
Coordinates from ORCA-job /home/rudenko/2025/kie/for_orca/m-o2nc6h4chno2ch3_piperidine/orca/ts_opt/ts_opt E -1047.485381926230
  C      -2.884695      0.153453     -1.843007
  C      -1.563196      0.558109     -1.662655
  C      -0.507216     -0.250441     -2.077812
  C      -0.790388     -1.480213     -2.682736
  C      -2.113118     -1.868665     -2.840477
  C      -3.173568     -1.075691     -2.428330
  H      -3.689704      0.803407     -1.527010
  H      -1.349346      1.523317     -1.199088
  H      -0.000545     -2.136469     -3.008458
  H      -4.190866     -1.409034     -2.572789
  N      -2.405411     -3.165433     -3.460647
  O      -3.563061     -3.532038     -3.466649
  O      -1.483214     -3.766263     -3.984690
  C       0.912695      0.174352     -1.785916
  C       1.671527     -0.814564     -0.921763
  H       1.150069     -0.918108      0.026936
  H       2.678354     -0.462388     -0.723766
  H       1.724921     -1.796111     -1.383910
  N       1.664571      0.452867     -3.067628
  O       2.864470      0.250580     -3.095821
  O       1.044025      0.927217     -4.007078
  H       0.896308      1.185087     -1.277379
  C      -0.581454      0.008780      3.360469
  C       0.657944     -0.435248      4.042434
  C       1.763397      0.616973      3.934208
  C       1.889658      1.140366      2.503228
  N       0.616101      1.696983      2.010351
  C      -0.470258      0.684033      2.036851
  H      -1.538240     -0.371451      3.672948
  H       0.466530     -0.683299      5.090982
  H       1.014086     -1.361506      3.572082
  H       2.712121      0.195219      4.255852
  H       1.539683      1.454271      4.596428
  H       2.636565      1.924446      2.430455
  H       2.165011      0.342705      1.819916
  H       0.350633      2.471253      2.609569
  H      -1.389032      1.169686      1.732823
  H      -0.218514     -0.035505      1.252860
  H       0.715564      2.139235      0.849428
  H      -0.032675      3.062300     -0.473263
  O       0.810266      2.627789     -0.306947
41
Coordinates from ORCA-job /home/rudenko/2025/kie/for_orca/m-o2nc6h4chno2ch3_piperidine/orca/ts_opt/ts_opt E -1047.485289210652
  C      -2.923692      0.068645     -1.859286
  C      -1.609870      0.468590     -1.636544
  C      -0.538166     -0.289191     -2.099236
  C      -0.797956     -1.465631     -2.791080
  C      -2.112917     -1.858266     -2.989299
  C      -3.189546     -1.113210     -2.533206
  H      -3.739660      0.679665     -1.504949
  H      -1.414823      1.386807     -1.102010
  H       0.004692     -2.083704     -3.157004
  H      -4.201005     -1.447946     -2.712206
  N      -2.379197     -3.107285     -3.704953
  O      -3.532381     -3.499231     -3.747712
  O      -1.439124     -3.686249     -4.231545
  C       0.872922      0.126638     -1.768942
  C       1.609861     -0.873507     -0.892579
  H       1.060242     -0.986017      0.039058
  H       2.612343     -0.526661     -0.659808
  H       1.676135     -1.852752     -1.364049
  N       1.644813      0.432116     -3.024770
  O       2.857167      0.246821     -3.040310
  O       1.027587      0.928114     -3.966763
  H       0.840771      1.135748     -1.251300
  C      -0.548953      0.123314      3.490377
  C       0.702341     -0.339618      4.140606
  C       1.842931      0.666452      3.947557
  C       1.940357      1.124171      2.496692
  N       0.662714      1.712572      2.038170
  C      -0.464832      0.742863      2.142049
  H      -1.513407     -0.200623      3.855024
  H       0.538334     -0.534268      5.202354
  H       1.010081     -1.296918      3.698885
  H       2.787738      0.227739      4.250859
  H       1.670152      1.535606      4.578684
  H       2.712988      1.877452      2.363442
  H       2.161399      0.289479      1.840140
  H       0.452945      2.518683      2.622687
  H      -1.380269      1.258083      1.857312
  H      -0.271019     -0.016853      1.374081
  H       0.720355      2.106507      0.882684
  H      -0.109444      2.967519     -0.469527
  O       0.757392      2.554348     -0.313584
41
Coordinates from ORCA-job /home/rudenko/2025/kie/for_orca/m-o2nc6h4chno2ch3_piperidine/orca/ts_opt/ts_opt E -1047.486825450961
  C      -2.925108      0.137576     -1.936705
  C      -1.611484      0.533214     -1.714042
  C      -0.539108     -0.269643     -2.103675
  C      -0.798849     -1.483955     -2.728735
  C      -2.113620     -1.872107     -2.924765
  C      -3.190814     -1.084678     -2.535887
  H      -3.741722      0.788494     -1.642100
  H      -1.417241      1.487625     -1.238956
  H       0.002460     -2.133018     -3.044161
  H      -4.201169     -1.414534     -2.712501
  N      -2.375655     -3.166112     -3.561098
  O      -3.523363     -3.587948     -3.554467
  O      -1.434451     -3.765487     -4.065135
  C       0.871727      0.152378     -1.774944
  C       1.625661     -0.850525     -0.918999
  H       1.095076     -0.976279      0.017738
  H       2.624173     -0.500050     -0.700750
  H       1.691795     -1.821773     -1.395156
  N       1.634132      0.474671     -3.042039
  O       2.844894      0.295610     -3.068303
  O       1.006506      0.974247     -3.971718
  H       0.836106      1.151109     -1.253573
  C      -0.553233      0.079245      3.443218
  C       0.688874     -0.384508      4.113332
  C       1.825160      0.631125      3.958138
  C       1.944223      1.111662      2.514838
  N       0.673801      1.698001      2.034887
  C      -0.447280      0.720986      2.105604
  H      -1.520403     -0.259609      3.782230
  H       0.507448     -0.596048      5.169922
  H       1.012136     -1.334469      3.662422
  H       2.767728      0.192291      4.274667
  H       1.635016      1.490775      4.601072
  H       2.715898      1.870762      2.411252
  H       2.186904      0.286681      1.849319
  H       0.445720      2.493014      2.627675
  H      -1.361545      1.231878      1.807534
  H      -0.235418     -0.030062      1.332089
  H       0.740121      2.125919      0.848743
  H      -0.134271      2.996608     -0.386173
  O       0.749171      2.606934     -0.280795
41
Coordinates from ORCA-job /home/rudenko/2025/kie/for_orca/m-o2nc6h4chno2ch3_piperidine/orca/ts_opt/ts_opt E -1047.488588888114
  C      -2.916925      0.190270     -1.992391
  C      -1.601632      0.591518     -1.781648
  C      -0.532279     -0.238785     -2.110411
  C      -0.796158     -1.487949     -2.666534
  C      -2.112806     -1.882741     -2.847321
  C      -3.187174     -1.068128     -2.515285
  H      -3.729608      0.854372     -1.740140
  H      -1.405334      1.558588     -1.354947
  H       0.002168     -2.164115     -2.935554
  H      -4.199722     -1.409362     -2.675616
  N      -2.378947     -3.211651     -3.403825
  O      -3.523066     -3.628300     -3.353847
  O      -1.445564     -3.827075     -3.899346
  C       0.879460      0.185543     -1.790284
  C       1.654767     -0.823015     -0.961653
  H       1.152979     -0.945951     -0.001955
  H       2.671361     -0.477701     -0.777103
  H       1.696928     -1.798717     -1.448723
  N       1.627254      0.520042     -3.070511
  O       2.832985      0.333350     -3.115543
  O       0.986221      1.015198     -3.990551
  H       0.845496      1.174198     -1.264926
  C      -0.570194      0.035574      3.386092
  C       0.656167     -0.427417      4.084961
  C       1.792773      0.596754      3.970484
  C       1.943500      1.097073      2.536495
  N       0.684163      1.680672      2.029034
  C      -0.429195      0.694995      2.060750
  H      -1.544825     -0.316565      3.693835
  H       0.447224     -0.651674      5.132936
  H       0.996847     -1.371659      3.634052
  H       2.730620      0.157316      4.305965
  H       1.582978      1.448927      4.619375
  H       2.714903      1.862258      2.465394
  H       2.212389      0.281738      1.868357
  H       0.435406      2.463735      2.629592
  H      -1.338985      1.198243      1.741645
  H      -0.192036     -0.046884      1.288075
  H       0.761188      2.149220      0.805741
  H      -0.148383      3.027166     -0.306571
  O       0.745054      2.660939     -0.248095
41
Coordinates from ORCA-job /home/rudenko/2025/kie/for_orca/m-o2nc6h4chno2ch3_piperidine/orca/ts_opt/ts_opt E -1047.490015223756
  C      -2.915100      0.211591     -2.075266
  C      -1.602070      0.613502     -1.857560
  C      -0.532189     -0.239056     -2.127706
  C      -0.793748     -1.507997     -2.640245
  C      -2.109783     -1.898024     -2.829164
  C      -3.183953     -1.061807     -2.551258
  H      -3.727971      0.902519     -1.875392
  H      -1.406915      1.621860     -1.485373
  H       0.001887     -2.198000     -2.872545
  H      -4.194261     -1.398458     -2.718253
  N      -2.375966     -3.251447     -3.330663
  O      -3.517540     -3.675724     -3.249141
  O      -1.445100     -3.879522     -3.813103
  C       0.873554      0.200556     -1.795973
  C       1.658339     -0.793839     -0.964076
  H       1.162496     -0.918575     -0.005835
  H       2.664533     -0.434349     -0.784687
  H       1.712798     -1.768259     -1.440316
  N       1.627867      0.552280     -3.073617
  O       2.836599      0.386879     -3.108211
  O       0.986576      1.046241     -3.991832
  H       0.818108      1.184157     -1.272275
  C      -0.568251      0.043681      3.402648
  C       0.654988     -0.444531      4.088950
  C       1.809577      0.556153      3.965888
  C       1.952536      1.059805      2.531147
  N       0.702639      1.667224      2.037344
  C      -0.423619      0.703740      2.078667
  H      -1.545264     -0.290613      3.718117
  H       0.451280     -0.665869      5.139144
  H       0.973696     -1.394795      3.633294
  H       2.742133      0.096745      4.289546
  H       1.623048      1.409363      4.621552
  H       2.737611      1.808809      2.457267
  H       2.202741      0.241168      1.858075
  H       0.472272      2.446571      2.647644
  H      -1.326844      1.221281      1.767491
  H      -0.207262     -0.042021      1.303900
  H       0.753368      2.166081      0.770199
  H      -0.226684      3.024781     -0.226688
  O       0.683872      2.697901     -0.221692
41
Coordinates from ORCA-job /home/rudenko/2025/kie/for_orca/m-o2nc6h4chno2ch3_piperidine/orca/ts_opt/ts_opt E -1047.491213250348
  C      -2.933023      0.210896     -2.170953
  C      -1.624204      0.619571     -1.933799
  C      -0.548137     -0.236622     -2.165464
  C      -0.798446     -1.518777     -2.660973
  C      -2.110617     -1.915153     -2.869301
  C      -3.191609     -1.077014     -2.627047
  H      -3.749355      0.896659     -1.994586
  H      -1.438991      1.613605     -1.563818
  H       0.001895     -2.215356     -2.866936
  H      -4.198632     -1.423109     -2.806329
  N      -2.364717     -3.275280     -3.354373
  O      -3.502372     -3.703211     -3.268633
  O      -1.427844     -3.899307     -3.828910
  C       0.849836      0.207972     -1.808881
  C       1.630976     -0.786552     -0.975649
  H       1.134310     -0.904366     -0.012917
  H       2.644311     -0.429563     -0.799971
  H       1.678858     -1.765916     -1.452428
  N       1.620954      0.576247     -3.073578
  O       2.827574      0.411803     -3.093100
  O       0.991595      1.070414     -3.997971
  H       0.778691      1.186844     -1.282814
  C      -0.551869      0.087934      3.472864
  C       0.669911     -0.424615      4.147777
  C       1.852575      0.541764      3.990282
  C       1.982873      1.023759      2.545230
  N       0.742049      1.660421      2.063642
  C      -0.408893      0.727444      2.137545
  H      -1.533120     -0.214051      3.809112
  H       0.477163     -0.623782      5.204949
  H       0.954740     -1.391812      3.703382
  H       2.778462      0.058720      4.305176
  H       1.702418      1.409941      4.637580
  H       2.790467      1.749303      2.449146
  H       2.200393      0.187465      1.881782
  H       0.544506      2.449625      2.674323
  H      -1.304676      1.263640      1.831189
  H      -0.225979     -0.037429      1.370640
  H       0.749564      2.170264      0.747216
  H      -0.307098      3.000214     -0.157722
  O       0.615465      2.717411     -0.205681
41
Coordinates from ORCA-job /home/rudenko/2025/kie/for_orca/m-o2nc6h4chno2ch3_piperidine/orca/ts_opt/ts_opt E -1047.491349504953
  C      -2.954849      0.178044     -2.241111
  C      -1.654330      0.588961     -1.968243
  C      -0.568441     -0.255398     -2.191618
  C      -0.799911     -1.527733     -2.714741
  C      -2.105130     -1.926337     -2.959535
  C      -3.195747     -1.096803     -2.728699
  H      -3.778936      0.862672     -2.076743
  H      -1.481283      1.597578     -1.591700
  H       0.008171     -2.216310     -2.916535
  H      -4.195823     -1.442138     -2.938468
  N      -2.341764     -3.282120     -3.471777
  O      -3.477420     -3.720414     -3.411083
  O      -1.393283     -3.888775     -3.942805
  C       0.816135      0.196261     -1.795021
  C       1.576790     -0.789865     -0.937088
  H       1.061645     -0.891457      0.019189
  H       2.589267     -0.433382     -0.749071
  H       1.627375     -1.775831     -1.401467
  N       1.620522      0.575299     -3.033853
  O       2.828813      0.422498     -3.018168
  O       1.014748      1.071471     -3.972641
  H       0.720877      1.172961     -1.272027
  C      -0.516501      0.172823      3.580634
  C       0.710958     -0.373959      4.216366
  C       1.924404      0.536747      3.983641
  C       2.007830      0.980409      2.522111
  N       0.774510      1.657656      2.080822
  C      -0.403294      0.772078      2.224628
  H      -1.493073     -0.077003      3.966646
  H       0.556098     -0.537051      5.285919
  H       0.936457     -1.363791      3.787085
  H       2.843080      0.020753      4.268410
  H       1.839516      1.425126      4.616872
  H       2.838831      1.667515      2.372674
  H       2.159986      0.118742      1.871093
  H       0.634781      2.462785      2.685200
  H      -1.288731      1.331089      1.939861
  H      -0.277954     -0.016908      1.472993
  H       0.716723      2.156530      0.737056
  H      -0.404955      2.946552     -0.108744
  O       0.523909      2.700729     -0.190062
41
Coordinates from ORCA-job /home/rudenko/2025/kie/for_orca/m-o2nc6h4chno2ch3_piperidine/orca/ts_opt/ts_opt E -1047.489493794489
  C      -2.990668      0.105323     -2.233711
  C      -1.698215      0.527286     -1.934182
  C      -0.595563     -0.278089     -2.212797
  C      -0.803303     -1.527031     -2.811962
  C      -2.100275     -1.934284     -3.087698
  C      -3.206699     -1.142374     -2.806324
  H      -3.827817      0.757044     -2.023458
  H      -1.545913      1.499266     -1.485785
  H       0.018718     -2.185786     -3.055213
  H      -4.199718     -1.494452     -3.041686
  N      -2.311625     -3.254238     -3.693598
  O      -3.444359     -3.698169     -3.692928
  O      -1.347516     -3.817309     -4.181031
  C       0.779397      0.169798     -1.781287
  C       1.504454     -0.820565     -0.897429
  H       0.958481     -0.910281      0.042448
  H       2.514905     -0.474550     -0.679795
  H       1.557850     -1.810008     -1.356392
  N       1.617724      0.544006     -2.988894
  O       2.824282      0.389122     -2.937096
  O       1.045227      1.049286     -3.943176
  H       0.676634      1.155998     -1.254069
  C      -0.478410      0.284066      3.689948
  C       0.750769     -0.292332      4.296022
  C       1.990518      0.560891      3.986771
  C       2.033707      0.955114      2.509436
  N       0.809790      1.669991      2.097455
  C      -0.395995      0.834022      2.310901
  H      -1.448374      0.091811      4.122979
  H       0.631834     -0.414077      5.375589
  H       0.919397     -1.304094      3.893238
  H       2.898952      0.015636      4.251907
  H       1.967009      1.471587      4.592972
  H       2.884787      1.602589      2.301989
  H       2.120081      0.067416      1.883096
  H       0.726851      2.496732      2.681814
  H      -1.268952      1.419334      2.039937
  H      -0.325980      0.018680      1.581511
  H       0.715328      2.123257      0.772184
  H      -0.443838      2.896237     -0.125872
  O       0.486524      2.653150     -0.205811
41
Coordinates from ORCA-job /home/rudenko/2025/kie/for_orca/m-o2nc6h4chno2ch3_piperidine/orca/ts_opt/ts_opt E -1047.491317374356
  C      -2.964385      0.178159     -2.279796
  C      -1.664316      0.595704     -2.006200
  C      -0.576763     -0.251799     -2.220954
  C      -0.806432     -1.534597     -2.735609
  C      -2.110514     -1.934455     -2.985535
  C      -3.202972     -1.104887     -2.761982
  H      -3.789316      0.855859     -2.115516
  H      -1.493888      1.588612     -1.623110
  H       0.002382     -2.223809     -2.932156
  H      -4.202732     -1.456381     -2.972184
  N      -2.343487     -3.291491     -3.494881
  O      -3.477981     -3.732293     -3.433216
  O      -1.392899     -3.899461     -3.962132
  C       0.806821      0.199036     -1.819588
  C       1.564664     -0.793552     -0.964289
  H       1.043282     -0.901618     -0.016421
  H       2.571624     -0.439190     -0.765101
  H       1.620747     -1.775865     -1.432821
  N       1.614014      0.586258     -3.054773
  O       2.822629      0.436756     -3.036085
  O       1.011586      1.092131     -3.989309
  H       0.709665      1.177243     -1.287355
  C      -0.507831      0.189292      3.623654
  C       0.718800     -0.355615      4.264221
  C       1.940587      0.544701      4.015578
  C       2.025485      0.968030      2.549394
  N       0.793744      1.647901      2.102943
  C      -0.392976      0.770717      2.260547
  H      -1.488012     -0.047739      4.015915
  H       0.563514     -0.502451      5.335090
  H       0.937790     -1.353113      3.849725
  H       2.857189      0.027481      4.306110
  H       1.861885      1.442537      4.635004
  H       2.863146      1.648221      2.388721
  H       2.171779      0.096400      1.911369
  H       0.661779      2.460317      2.701396
  H      -1.278466      1.335675      1.972553
  H      -0.277971     -0.030464      1.516878
  H       0.721665      2.145068      0.741725
  H      -0.422630      2.940662     -0.103761
  O       0.508795      2.702018     -0.198048
41
Coordinates from ORCA-job /home/rudenko/2025/kie/for_orca/m-o2nc6h4chno2ch3_piperidine/orca/ts_opt/ts_opt E -1047.493361976008
  C      -2.929182      0.243435     -2.301271
  C      -1.623756      0.653815     -2.050109
  C      -0.550119     -0.223977     -2.196134
  C      -0.798390     -1.530795     -2.620018
  C      -2.108015     -1.926265     -2.842723
  C      -3.187445     -1.064994     -2.686994
  H      -3.743582      0.948916     -2.195120
  H      -1.436823      1.671014     -1.741908
  H      -0.001117     -2.246129     -2.761989
  H      -4.191638     -1.411272     -2.875923
  N      -2.359003     -3.313445     -3.246073
  O      -3.494360     -3.744518     -3.127666
  O      -1.420248     -3.960882     -3.685686
  C       0.840976      0.233754     -1.831381
  C       1.634384     -0.745355     -0.994622
  H       1.143598     -0.853492     -0.026184
  H       2.647387     -0.377991     -0.830114
  H       1.685545     -1.730111     -1.462262
  N       1.614712      0.614772     -3.098054
  O       2.822105      0.462160     -3.112255
  O       0.983188      1.103145     -4.022118
  H       0.752250      1.209297     -1.309427
  C      -0.543894      0.087085      3.512953
  C       0.677777     -0.449189      4.173711
  C       1.877642      0.494724      4.000272
  C       1.992922      0.977320      2.552395
  N       0.759314      1.636077      2.083482
  C      -0.402869      0.723047      2.175713
  H      -1.525105     -0.199709      3.860706
  H       0.495448     -0.645318      5.233817
  H       0.938574     -1.423506      3.725448
  H       2.799809     -0.008393      4.302157
  H       1.753526      1.365995      4.652254
  H       2.814385      1.686299      2.447254
  H       2.189543      0.134284      1.887304
  H       0.584684      2.424538      2.700761
  H      -1.294599      1.269926      1.880128
  H      -0.244853     -0.046198      1.408947
  H       0.712641      2.193242      0.692363
  H      -0.397396      3.004066     -0.089252
  O       0.531982      2.764626     -0.182383
41
Coordinates from ORCA-job /home/rudenko/2025/kie/for_orca/m-o2nc6h4chno2ch3_piperidine/orca/ts_opt/ts_opt E -1047.494255084883
  C      -2.915087      0.291619     -2.423055
  C      -1.609026      0.699009     -2.168413
  C      -0.546055     -0.207319     -2.227710
  C      -0.803656     -1.532201     -2.577566
  C      -2.114386     -1.922586     -2.802957
  C      -3.185012     -1.039412     -2.725602
  H      -3.720861      1.010484     -2.377955
  H      -1.411875      1.731033     -1.921902
  H      -0.015368     -2.265898     -2.658920
  H      -4.191296     -1.386725     -2.910792
  N      -2.375441     -3.333030     -3.116221
  O      -3.511336     -3.756200     -2.956830
  O      -1.440748     -4.025031     -3.509900
  C       0.845108      0.255226     -1.867230
  C       1.657683     -0.724901     -1.047199
  H       1.172301     -0.855156     -0.086843
  H       2.656254     -0.346171     -0.877238
  H       1.727686     -1.699019     -1.522683
  N       1.606268      0.661092     -3.143982
  O       2.815346      0.515076     -3.174832
  O       0.959236      1.158393     -4.052011
  H       0.747860      1.214375     -1.340910
  C      -0.541179      0.046403      3.530689
  C       0.681559     -0.472165      4.201486
  C       1.876620      0.480397      4.028875
  C       2.002691      0.952994      2.582455
  N       0.766569      1.600851      2.102842
  C      -0.396271      0.682124      2.195359
  H      -1.527441     -0.246631      3.874555
  H       0.490138     -0.662117      5.258662
  H       0.956907     -1.445661      3.762401
  H       2.800279     -0.007946      4.341677
  H       1.736100      1.353618      4.670946
  H       2.822904      1.667267      2.482460
  H       2.218209      0.107965      1.925711
  H       0.584739      2.390304      2.723406
  H      -1.297527      1.229167      1.901489
  H      -0.241154     -0.093896      1.424575
  H       0.688293      2.192235      0.668361
  H      -0.452249      2.994976     -0.030032
  O       0.483215      2.787460     -0.155164
41
Coordinates from ORCA-job /home/rudenko/2025/kie/for_orca/m-o2nc6h4chno2ch3_piperidine/orca/ts_opt/ts_opt E -1047.494601867069
  C      -2.904053      0.303912     -2.543480
  C      -1.603779      0.708320     -2.263023
  C      -0.548696     -0.208250     -2.249311
  C      -0.807437     -1.543210     -2.552293
  C      -2.113944     -1.927504     -2.806248
  C      -3.176808     -1.031823     -2.802205
  H      -3.703981      1.033177     -2.556928
  H      -1.404259      1.744564     -2.050411
  H      -0.025104     -2.287336     -2.579222
  H      -4.178807     -1.373941     -3.008619
  N      -2.380840     -3.344859     -3.068157
  O      -3.520478     -3.759745     -2.896731
  O      -1.448348     -4.053438     -3.431986
  C       0.835139      0.265951     -1.873244
  C       1.652171     -0.698138     -1.040194
  H       1.164779     -0.817086     -0.072629
  H       2.654135     -0.308480     -0.876035
  H       1.727781     -1.679380     -1.506085
  N       1.607792      0.670457     -3.149581
  O       2.816763      0.524960     -3.168554
  O       0.966183      1.159839     -4.066002
  H       0.720621      1.232537     -1.355433
  C      -0.521271      0.058513      3.585640
  C       0.709664     -0.487433      4.227248
  C       1.913928      0.446829      4.030505
  C       2.005679      0.926079      2.578594
  N       0.773213      1.592397      2.121691
  C      -0.396657      0.692823      2.245568
  H      -1.498571     -0.224489      3.950044
  H       0.545596     -0.682758      5.291470
  H       0.955695     -1.465860      3.772343
  H       2.837858     -0.062552      4.319008
  H       1.807142      1.321142      4.684018
  H       2.833588      1.626728      2.462795
  H       2.194654      0.079293      1.913675
  H       0.617485      2.382817      2.742808
  H      -1.295028      1.249268      1.971963
  H      -0.272648     -0.084038      1.472898
  H       0.628820      2.214884      0.643945
  H      -0.555413      2.979530      0.029414
  O       0.387436      2.826297     -0.127258
41
Coordinates from ORCA-job /home/rudenko/2025/kie/for_orca/m-o2nc6h4chno2ch3_piperidine/orca/ts_opt/ts_opt E -1047.494723075234
  C      -2.907275      0.309435     -2.687913
  C      -1.615312      0.711206     -2.367613
  C      -0.566199     -0.209444     -2.302450
  C      -0.821272     -1.548126     -2.589763
  C      -2.121702     -1.933431     -2.880195
  C      -3.178735     -1.031901     -2.930706
  H      -3.702019      1.043304     -2.744544
  H      -1.415090      1.756236     -2.170823
  H      -0.042761     -2.297826     -2.575203
  H      -4.175772     -1.374251     -3.165410
  N      -2.390162     -3.356126     -3.122959
  O      -3.535320     -3.758022     -2.971020
  O      -1.454854     -4.078704     -3.455638
  C       0.806536      0.268368     -1.891490
  C       1.609288     -0.694706     -1.044395
  H       1.101439     -0.816433     -0.091257
  H       2.602460     -0.302513     -0.857350
  H       1.700354     -1.673398     -1.509127
  N       1.608068      0.688590     -3.148433
  O       2.815917      0.538980     -3.144981
  O       0.987249      1.189821     -4.070697
  H       0.673439      1.217504     -1.379501
  C      -0.474580      0.095699      3.714100
  C       0.766414     -0.444308      4.331565
  C       1.980342      0.458868      4.058130
  C       2.036310      0.881883      2.591810
  N       0.799345      1.560633      2.161591
  C      -0.384025      0.686369      2.353147
  H      -1.447012     -0.156794      4.121765
  H       0.630942     -0.595604      5.403412
  H       0.983554     -1.439349      3.908636
  H       2.903309     -0.051855      4.333119
  H       1.907211      1.355881      4.677652
  H       2.876156      1.560507      2.424097
  H       2.187853      0.008689      1.951616
  H       0.681976      2.372263      2.769515
  H      -1.284541      1.252133      2.096874
  H      -0.301819     -0.116078      1.597972
  H       0.564672      2.185636      0.645073
  H      -0.673327      2.920147      0.070743
  O       0.268943      2.816720     -0.109351
41
Coordinates from ORCA-job /home/rudenko/2025/kie/for_orca/m-o2nc6h4chno2ch3_piperidine/orca/ts_opt/ts_opt E -1047.494610289792
  C      -2.867871      0.332371     -2.796628
  C      -1.575205      0.732117     -2.478294
  C      -0.548698     -0.203012     -2.323738
  C      -0.827488     -1.557357     -2.519941
  C      -2.129580     -1.932771     -2.817399
  C      -3.163263     -1.015430     -2.955325
  H      -3.645561      1.071678     -2.914997
  H      -1.356357      1.783962     -2.345082
  H      -0.068745     -2.322786     -2.434398
  H      -4.162562     -1.354396     -3.186966
  N      -2.426834     -3.357855     -2.974544
  O      -3.580101     -3.720580     -2.803619
  O      -1.510643     -4.103568     -3.283861
  C       0.821438      0.286238     -1.920327
  C       1.644272     -0.658794     -1.072970
  H       1.139959     -0.789293     -0.118381
  H       2.628755     -0.244299     -0.886793
  H       1.759737     -1.635236     -1.536022
  N       1.617055      0.712181     -3.184168
  O       2.826093      0.569512     -3.183040
  O       0.992269      1.219429     -4.097682
  H       0.672644      1.254037     -1.404699
  C      -0.470560      0.052744      3.722566
  C       0.775936     -0.485787      4.331109
  C       1.982345      0.428944      4.061760
  C       2.023099      0.870077      2.597927
  N       0.782582      1.539624      2.174783
  C      -0.386433      0.654631      2.365618
  H      -1.437432     -0.217131      4.128038
  H       0.647363     -0.651681      5.402800
  H       0.995831     -1.475750      3.895178
  H       2.911813     -0.082334      4.325571
  H       1.909330      1.320446      4.693584
  H       2.855952      1.555493      2.432677
  H       2.179331      0.004653      1.948308
  H       0.656802      2.343581      2.782957
  H      -1.289856      1.210237      2.117019
  H      -0.299155     -0.136478      1.606846
  H       0.496965      2.211616      0.620661
  H      -0.759266      2.929161      0.109440
  O       0.186037      2.861809     -0.077966
41
Coordinates from ORCA-job /home/rudenko/2025/kie/for_orca/m-o2nc6h4chno2ch3_piperidine/orca/ts_opt/ts_opt E -1047.494514069143
  C      -2.850501      0.345083     -2.951617
  C      -1.572035      0.751464     -2.589623
  C      -0.559680     -0.180124     -2.336138
  C      -0.839578     -1.535400     -2.469813
  C      -2.127512     -1.918817     -2.809733
  C      -3.147121     -1.006063     -3.050545
  H      -3.617623      1.085202     -3.154177
  H      -1.353753      1.803939     -2.495970
  H      -0.091287     -2.296184     -2.306657
  H      -4.135032     -1.348174     -3.315266
  N      -2.422934     -3.352860     -2.892763
  O      -3.580545     -3.717881     -2.716315
  O      -1.495290     -4.130834     -3.111606
  C       0.804125      0.310536     -1.912770
  C       1.616387     -0.623329     -1.046945
  H       1.095822     -0.751899     -0.097280
  H       2.598023     -0.200587     -0.847683
  H       1.745179     -1.602148     -1.506107
  N       1.614936      0.724434     -3.175697
  O       2.818154      0.551401     -3.171025
  O       1.002249      1.231317     -4.098563
  H       0.657020      1.265233     -1.423959
  C      -0.440261      0.036627      3.768620
  C       0.819022     -0.516105      4.344903
  C       2.022851      0.391259      4.049649
  C       2.030241      0.835314      2.584984
  N       0.785487      1.518192      2.190219
  C      -0.391326      0.647071      2.411145
  H      -1.397186     -0.231328      4.195506
  H       0.718993     -0.688119      5.420277
  H       1.020464     -1.506352      3.896150
  H       2.954721     -0.126779      4.290510
  H       1.972397      1.281947      4.686890
  H       2.864809      1.513981      2.401593
  H       2.164599     -0.030086      1.928709
  H       0.687665      2.330426      2.798528
  H      -1.298015      1.220125      2.192781
  H      -0.340963     -0.144313      1.640482
  H       0.423650      2.232840      0.606411
  H      -0.850662      2.929040      0.129123
  O       0.094510      2.901953     -0.056229
41
Coordinates from ORCA-job /home/rudenko/2025/kie/for_orca/m-o2nc6h4chno2ch3_piperidine/orca/ts_opt/ts_opt E -1047.494140626260
  C      -2.827367      0.342676     -3.078076
  C      -1.554536      0.753697     -2.702202
  C      -0.560050     -0.175199     -2.382345
  C      -0.855687     -1.536233     -2.453458
  C      -2.139589     -1.924058     -2.810014
  C      -3.139567     -1.012616     -3.121315
  H      -3.578681      1.078926     -3.331875
  H      -1.326377      1.811811     -2.649747
  H      -0.123186     -2.300101     -2.228988
  H      -4.125339     -1.358246     -3.396360
  N      -2.450136     -3.354794     -2.842303
  O      -3.613785     -3.689371     -2.686013
  O      -1.530449     -4.137104     -3.035321
  C       0.800493      0.321754     -1.958328
  C       1.623124     -0.616703     -1.103714
  H       1.092913     -0.778126     -0.169919
  H       2.589195     -0.181837     -0.877086
  H       1.784297     -1.579693     -1.583891
  N       1.610564      0.752266     -3.217515
  O       2.812584      0.563424     -3.223584
  O       1.004578      1.301160     -4.117495
  H       0.646526      1.290879     -1.450210
  C      -0.418405      0.042676      3.852985
  C       0.845052     -0.511022      4.412084
  C       2.049761      0.384110      4.082093
  C       2.037359      0.806591      2.613201
  N       0.792310      1.491040      2.230076
  C      -0.387800      0.634887      2.488384
  H      -1.370130     -0.220420      4.297052
  H       0.762564     -0.670727      5.488967
  H       1.030228     -1.506403      3.973030
  H       2.981045     -0.135298      4.314843
  H       2.015919      1.282856      4.702619
  H       2.873830      1.476859      2.404553
  H       2.154440     -0.067556      1.969776
  H       0.710191      2.316093      2.816621
  H      -1.290512      1.213705      2.283761
  H      -0.362805     -0.163995      1.730463
  H       0.364881      2.223651      0.617108
  H      -0.938608      2.912900      0.162501
  O       0.011156      2.917541     -0.020356
41
Coordinates from ORCA-job /home/rudenko/2025/kie/for_orca/m-o2nc6h4chno2ch3_piperidine/orca/ts_opt/ts_opt E -1047.493878394880
  C      -2.779211      0.346888     -3.122805
  C      -1.508641      0.780117     -2.762959
  C      -0.530175     -0.123539     -2.338789
  C      -0.843151     -1.478531     -2.281361
  C      -2.124516     -1.886212     -2.625113
  C      -3.106107     -0.999757     -3.046694
  H      -3.518338      1.062517     -3.458756
  H      -1.270779      1.836750     -2.803905
  H      -0.125669     -2.221843     -1.967196
  H      -4.090508     -1.359107     -3.307947
  N      -2.447649     -3.311787     -2.523650
  O      -3.616123     -3.623242     -2.346813
  O      -1.530151     -4.121209     -2.624233
  C       0.836052      0.385808     -1.947631
  C       1.673286     -0.513791     -1.072559
  H       1.145792     -0.670146     -0.131143
  H       2.630299     -0.047832     -0.856165
  H       1.857820     -1.481465     -1.533945
  N       1.629214      0.768536     -3.235895
  O       2.822843      0.542690     -3.262786
  O       1.015610      1.302807     -4.140343
  H       0.696246      1.343359     -1.486240
  C      -0.457263     -0.072299      3.729906
  C       0.806097     -0.627496      4.281698
  C       2.001690      0.296953      4.006576
  C       2.001739      0.779183      2.557475
  N       0.751571      1.458591      2.186252
  C      -0.416871      0.578625      2.393406
  H      -1.410680     -0.378307      4.143443
  H       0.709459     -0.834271      5.348364
  H       1.013921     -1.598923      3.803619
  H       2.939002     -0.218454      4.228285
  H       1.946508      1.169525      4.665892
  H       2.829876      1.470095      2.388865
  H       2.142036     -0.065734      1.876563
  H       0.651516      2.263953      2.801746
  H      -1.324065      1.151739      2.205835
  H      -0.372222     -0.185341      1.601479
  H       0.325570      2.287628      0.571054
  H      -0.952300      2.994166      0.117231
  O      -0.001730      2.999354     -0.030763
41
Coordinates from ORCA-job /home/rudenko/2025/kie/for_orca/m-o2nc6h4chno2ch3_piperidine/orca/ts_opt/ts_opt E -1047.493822285051
  C      -2.769598      0.330774     -3.190193
  C      -1.505430      0.775896     -2.825654
  C      -0.529726     -0.113826     -2.364277
  C      -0.844902     -1.462555     -2.264828
  C      -2.120413     -1.883097     -2.610868
  C      -3.096245     -1.013254     -3.076536
  H      -3.504674      1.035632     -3.560926
  H      -1.274179      1.826544     -2.886761
  H      -0.130762     -2.191360     -1.917535
  H      -4.074264     -1.380352     -3.345459
  N      -2.441026     -3.305161     -2.467305
  O      -3.611211     -3.621929     -2.287074
  O      -1.519348     -4.116912     -2.514100
  C       0.840921      0.392732     -1.983593
  C       1.683817     -0.524217     -1.126402
  H       1.142919     -0.726345     -0.206215
  H       2.625316     -0.052091     -0.871200
  H       1.899357     -1.469527     -1.620918
  N       1.623275      0.778878     -3.275755
  O       2.803604      0.496441     -3.338502
  O       1.021733      1.375250     -4.146392
  H       0.710868      1.381876     -1.496375
  C      -0.458036     -0.071474      3.769225
  C       0.810960     -0.646652      4.300433
  C       2.009197      0.273015      4.023683
  C       1.996334      0.765485      2.576305
  N       0.747065      1.458716      2.218569
  C      -0.435617      0.597154      2.437502
  H      -1.406437     -0.383257      4.184631
  H       0.729213     -0.868304      5.368209
  H       1.003970     -1.616062      3.804381
  H       2.945584     -0.251141      4.232987
  H       1.967961      1.140904      4.692209
  H       2.827706      1.451239      2.401642
  H       2.121566     -0.077052      1.890175
  H       0.667086      2.272240      2.826241
  H      -1.337967      1.196487      2.273469
  H      -0.425245     -0.162706      1.632809
  H       0.300727      2.317649      0.596943
  H      -0.975744      3.029981      0.136460
  O      -0.018356      3.040382      0.010993
41
Coordinates from ORCA-job /home/rudenko/2025/kie/for_orca/m-o2nc6h4chno2ch3_piperidine/orca/ts_opt/ts_opt E -1047.493980024940
  C      -2.740885      0.328619     -3.216354
  C      -1.479598      0.784907     -2.854617
  C      -0.513150     -0.092140     -2.349152
  C      -0.839226     -1.437930     -2.194438
  C      -2.111397     -1.865680     -2.545318
  C      -3.074978     -1.010675     -3.059210
  H      -3.467847      1.019775     -3.617801
  H      -1.246160      1.834366     -2.948273
  H      -0.134315     -2.157323     -1.801932
  H      -4.050300     -1.385244     -3.331587
  N      -2.442945     -3.278166     -2.363502
  O      -3.619058     -3.576675     -2.221033
  O      -1.526465     -4.090740     -2.369955
  C       0.858155      0.422623     -1.977865
  C       1.700358     -0.467732     -1.095078
  H       1.139985     -0.695406     -0.192953
  H       2.613716      0.037359     -0.809561
  H       1.965196     -1.399405     -1.584536
  N       1.639308      0.773968     -3.279236
  O       2.804327      0.431015     -3.365161
  O       1.049696      1.405785     -4.137303
  H       0.733298      1.396526     -1.528437
  C      -0.461925     -0.096699      3.762167
  C       0.810706     -0.681023      4.264536
  C       2.006605      0.236206      3.976435
  C       1.974808      0.737557      2.532967
  N       0.725915      1.433611      2.197724
  C      -0.456227      0.582563      2.437163
  H      -1.404335     -0.421010      4.183260
  H       0.745383     -0.914691      5.329917
  H       0.990652     -1.644370      3.755167
  H       2.942979     -0.292388      4.167787
  H       1.978210      1.098074      4.649543
  H       2.804650      1.421199      2.348247
  H       2.086012     -0.100000      1.842424
  H       0.659536      2.249521      2.795000
  H      -1.352038      1.187263      2.298792
  H      -0.467209     -0.166738      1.629794
  H       0.253670      2.318616      0.580455
  H      -1.029044      3.021884      0.092390
  O      -0.066065      3.052599     -0.000465
41
Coordinates from ORCA-job /home/rudenko/2025/kie/for_orca/m-o2nc6h4chno2ch3_piperidine/orca/ts_opt/ts_opt E -1047.494348002908
  C      -2.738948      0.323741     -3.193487
  C      -1.475527      0.787658     -2.850208
  C      -0.499715     -0.078955     -2.346771
  C      -0.818563     -1.417790     -2.171996
  C      -2.095002     -1.856957     -2.495544
  C      -3.067038     -1.013426     -3.013009
  H      -3.472719      1.009349     -3.602290
  H      -1.244976      1.839879     -2.969068
  H      -0.104933     -2.124031     -1.780386
  H      -4.043931     -1.395331     -3.269779
  N      -2.422507     -3.271608     -2.279559
  O      -3.599301     -3.574611     -2.138772
  O      -1.502927     -4.084154     -2.252724
  C       0.879881      0.434633     -2.001784
  C       1.735214     -0.462274     -1.133116
  H       1.170638     -0.723268     -0.238136
  H       2.643218      0.054238     -0.826443
  H       2.021581     -1.378697     -1.649378
  N       1.639664      0.771797     -3.316510
  O       2.767055      0.344434     -3.457934
  O       1.075251      1.473393     -4.129652
  H       0.767752      1.427998     -1.546210
  C      -0.490388     -0.119941      3.742401
  C       0.783511     -0.707281      4.238443
  C       1.980467      0.215030      3.967528
  C       1.954619      0.730015      2.530884
  N       0.703899      1.432229      2.202432
  C      -0.485698      0.584932      2.430122
  H      -1.433900     -0.463995      4.148237
  H       0.713879     -0.955702      5.299130
  H       0.968895     -1.661820      3.715790
  H       2.918017     -0.313291      4.155642
  H       1.946725      1.069704      4.651384
  H       2.786733      1.416052      2.355761
  H       2.068088     -0.102579      1.830932
  H       0.643346      2.250835      2.807370
  H      -1.380216      1.201452      2.308396
  H      -0.507201     -0.152296      1.605785
  H       0.258064      2.344180      0.598603
  H      -1.002575      3.063107      0.065202
  O      -0.040431      3.083351      0.008715
41
Coordinates from ORCA-job /home/rudenko/2025/kie/for_orca/m-o2nc6h4chno2ch3_piperidine/orca/ts_opt/ts_opt E -1047.495013606083
  C      -2.732518      0.331231     -3.096140
  C      -1.459040      0.793608     -2.789445
  C      -0.472681     -0.075236     -2.312708
  C      -0.791037     -1.417305     -2.124734
  C      -2.075961     -1.850867     -2.417249
  C      -3.058563     -1.005225     -2.908934
  H      -3.475349      1.016342     -3.480145
  H      -1.231576      1.840621     -2.908309
  H      -0.069315     -2.127116     -1.747208
  H      -4.041673     -1.385036     -3.141837
  N      -2.401041     -3.260480     -2.203691
  O      -3.578033     -3.564156     -2.066932
  O      -1.480822     -4.069877     -2.175289
  C       0.914096      0.442830     -2.001712
  C       1.779972     -0.436943     -1.129562
  H       1.213384     -0.721245     -0.249253
  H       2.662029      0.101478     -0.807320
  H       2.096682     -1.339094     -1.644087
  N       1.642126      0.755840     -3.338656
  O       2.736715      0.262936     -3.540384
  O       1.080920      1.508886     -4.113245
  H       0.811226      1.435590     -1.567334
  C      -0.529704     -0.150335      3.666010
  C       0.741089     -0.743398      4.165117
  C       1.933802      0.194207      3.934583
  C       1.923924      0.741842      2.507989
  N       0.675412      1.440176      2.172852
  C      -0.511618      0.586748      2.370922
  H      -1.474440     -0.520540      4.042056
  H       0.659426     -1.020602      5.219187
  H       0.938624     -1.683741      3.620165
  H       2.871568     -0.331819      4.125458
  H       1.883157      1.031640      4.636706
  H       2.751711      1.437000      2.358261
  H       2.053822     -0.074721      1.795631
  H       0.601589      2.247590      2.782545
  H      -1.403877      1.204065      2.254638
  H      -0.523942     -0.129087      1.531461
  H       0.283462      2.358977      0.589163
  H      -0.955116      3.081771      0.008249
  O       0.011570      3.093445     -0.016818
41
Coordinates from ORCA-job /home/rudenko/2025/kie/for_orca/m-o2nc6h4chno2ch3_piperidine/orca/ts_opt/ts_opt E -1047.495797236822
  C      -2.739942      0.342975     -3.008845
  C      -1.460449      0.802349     -2.722536
  C      -0.460491     -0.074989     -2.288214
  C      -0.766466     -1.419156     -2.129137
  C      -2.057277     -1.852224     -2.395826
  C      -3.056276     -0.999146     -2.842083
  H      -3.495677      1.033980     -3.358434
  H      -1.236875      1.855213     -2.830770
  H      -0.030764     -2.131231     -1.790065
  H      -4.044408     -1.378602     -3.055865
  N      -2.370875     -3.271009     -2.201222
  O      -3.545719     -3.588820     -2.076668
  O      -1.443103     -4.073731     -2.176878
  C       0.932518      0.438779     -1.997547
  C       1.806333     -0.443619     -1.132411
  H       1.238702     -0.743827     -0.251572
  H       2.689966      0.101458     -0.801795
  H       2.130543     -1.338535     -1.661734
  N       1.638740      0.732395     -3.347578
  O       2.677177      0.157967     -3.605950
  O       1.116108      1.551643     -4.077323
  H       0.840089      1.437817     -1.570524
  C      -0.556287     -0.155256      3.630665
  C       0.714551     -0.748402      4.128305
  C       1.905913      0.194739      3.913804
  C       1.902504      0.752903      2.492706
  N       0.653075      1.454342      2.160449
  C      -0.537167      0.600803      2.346745
  H      -1.502646     -0.538798      3.993298
  H       0.627793     -1.036504      5.178159
  H       0.918602     -1.681731      3.574423
  H       2.844894     -0.329856      4.104456
  H       1.847799      1.026212      4.623473
  H       2.730841      1.450179      2.351783
  H       2.035941     -0.059508      1.774031
  H       0.579855      2.259837      2.777624
  H      -1.428763      1.222952      2.241340
  H      -0.553427     -0.103933      1.495563
  H       0.304014      2.369810      0.600302
  H      -0.907457      3.088733     -0.035189
  O       0.058110      3.093795     -0.028962
41
Coordinates from ORCA-job /home/rudenko/2025/kie/for_orca/m-o2nc6h4chno2ch3_piperidine/orca/ts_opt/ts_opt E -1047.496542191812
  C      -2.748054      0.351615     -2.914391
  C      -1.461470      0.801749     -2.644741
  C      -0.450957     -0.090070     -2.274382
  C      -0.750135     -1.442408     -2.164374
  C      -2.046697     -1.865161     -2.417709
  C      -3.057662     -0.995566     -2.799040
  H      -3.513668      1.054585     -3.213606
  H      -1.240791      1.855357     -2.712893
  H      -0.004095     -2.166603     -1.874564
  H      -4.050167     -1.366971     -3.003301
  N      -2.353929     -3.289741     -2.280754
  O      -3.528110     -3.618893     -2.175333
  O      -1.422318     -4.087800     -2.276967
  C       0.944465      0.421818     -1.992411
  C       1.816917     -0.462276     -1.129274
  H       1.242085     -0.779125     -0.262499
  H       2.686962      0.087055     -0.781088
  H       2.155263     -1.346348     -1.663573
  N       1.630589      0.709625     -3.351687
  O       2.611125      0.066991     -3.674544
  O       1.140464      1.594059     -4.031182
  H       0.857161      1.421135     -1.568818
  C      -0.568932     -0.134642      3.624415
  C       0.701816     -0.728847      4.123570
  C       1.893670      0.215456      3.911564
  C       1.890686      0.774419      2.489489
  N       0.641953      1.476361      2.155702
  C      -0.548470      0.624529      2.342119
  H      -1.515309     -0.524140      3.979969
  H       0.613675     -1.018254      5.173617
  H       0.905913     -1.662694      3.569363
  H       2.832936     -0.309987      4.103455
  H       1.834712      1.047226      4.621953
  H       2.718798      1.471325      2.347685
  H       2.022967     -0.039080      1.772416
  H       0.568850      2.282191      2.770426
  H      -1.437654      1.248771      2.238345
  H      -0.566891     -0.077206      1.490179
  H       0.325832      2.363366      0.613597
  H      -0.868087      3.066986     -0.076591
  O       0.096556      3.071193     -0.044141
41
Coordinates from ORCA-job /home/rudenko/2025/kie/for_orca/m-o2nc6h4chno2ch3_piperidine/orca/ts_opt/ts_opt E -1047.497223996724
  C      -2.756483      0.360681     -2.826341
  C      -1.465786      0.800209     -2.560454
  C      -0.446984     -0.106685     -2.251429
  C      -0.737137     -1.463468     -2.206695
  C      -2.037590     -1.878437     -2.453758
  C      -3.059564     -0.993298     -2.767819
  H      -3.530751      1.074198     -3.073180
  H      -1.246164      1.858590     -2.587364
  H       0.018647     -2.196697     -1.970745
  H      -4.055856     -1.358284     -2.966212
  N      -2.338191     -3.310452     -2.382251
  O      -3.511245     -3.649880     -2.306966
  O      -1.402407     -4.102751     -2.402830
  C       0.949779      0.402727     -1.969982
  C       1.820808     -0.484439     -1.106758
  H       1.241708     -0.803897     -0.239212
  H       2.694544      0.065245     -0.754742
  H       2.158585     -1.367786     -1.646451
  N       1.627293      0.677628     -3.332842
  O       2.542221     -0.030493     -3.701970
  O       1.191015      1.618247     -3.970917
  H       0.864587      1.404072     -1.552120
  C      -0.572108     -0.110453      3.624816
  C       0.701732     -0.703727      4.115598
  C       1.890882      0.239758      3.894301
  C       1.878955      0.794480      2.471513
  N       0.628941      1.499563      2.148541
  C      -0.562257      0.650430      2.343731
  H      -1.517449     -0.499052      3.986394
  H       0.620135     -0.990334      5.166638
  H       0.902385     -1.638158      3.561913
  H       2.830623     -0.283106      4.081390
  H       1.834271      1.072142      4.602085
  H       2.707318      1.488583      2.320902
  H       2.002045     -0.021559      1.754849
  H       0.562006      2.304707      2.766209
  H      -1.450805      1.279283      2.251141
  H      -0.592179     -0.049664      1.489262
  H       0.334365      2.361948      0.628109
  H      -0.841901      3.039965     -0.117290
  O       0.122013      3.050162     -0.059067
41
Coordinates from ORCA-job /home/rudenko/2025/kie/for_orca/m-o2nc6h4chno2ch3_piperidine/orca/ts_opt/ts_opt E -1047.497699083660
  C      -2.776723      0.353412     -2.747641
  C      -1.482256      0.786451     -2.484322
  C      -0.452576     -0.129074     -2.255202
  C      -0.731440     -1.487905     -2.294381
  C      -2.034168     -1.896807     -2.541272
  C      -3.068861     -1.001982     -2.771646
  H      -3.561466      1.074686     -2.931727
  H      -1.267705      1.844058     -2.449375
  H       0.035117     -2.228114     -2.121875
  H      -4.067418     -1.361254     -2.969598
  N      -2.323425     -3.333153     -2.557408
  O      -3.494028     -3.686951     -2.512954
  O      -1.380752     -4.116181     -2.608921
  C       0.944074      0.374355     -1.965269
  C       1.806794     -0.531946     -1.113434
  H       1.218945     -0.864439     -0.259664
  H       2.677651      0.006192     -0.744011
  H       2.144877     -1.406066     -1.666361
  N       1.613305      0.657628     -3.327420
  O       2.451566     -0.107473     -3.760254
  O       1.233208      1.658158     -3.910952
  H       0.863305      1.370730     -1.536178
  C      -0.568801     -0.052982      3.671208
  C       0.705655     -0.647217      4.165091
  C       1.903741      0.284578      3.919813
  C       1.883760      0.818412      2.488272
  N       0.634857      1.527524      2.163757
  C      -0.559567      0.686058      2.378188
  H      -1.515458     -0.430798      4.041862
  H       0.628072     -0.914665      5.221442
  H       0.895591     -1.594786      3.627725
  H       2.843437     -0.246171      4.107664
  H       1.861172      1.131364      4.616263
  H       2.716965      1.504242      2.319212
  H       1.993439     -0.010512      1.784399
  H       0.574686      2.340198      2.771636
  H      -1.444485      1.315886      2.277601
  H      -0.594026     -0.026279      1.537341
  H       0.355011      2.342880      0.651449
  H      -0.811202      2.990687     -0.146105
  O       0.149127      3.007256     -0.066956
41
Coordinates from ORCA-job /home/rudenko/2025/kie/for_orca/m-o2nc6h4chno2ch3_piperidine/orca/ts_opt/ts_opt E -1047.497980043748
  C      -2.783576      0.346510     -2.682620
  C      -1.489242      0.776852     -2.415977
  C      -0.451849     -0.140210     -2.234838
  C      -0.721861     -1.502109     -2.323973
  C      -2.023649     -1.908218     -2.577573
  C      -3.066462     -1.009158     -2.759390
  H      -3.575273      1.068226     -2.826247
  H      -1.279135      1.835269     -2.344232
  H       0.051936     -2.242623     -2.189791
  H      -4.064668     -1.365385     -2.960670
  N      -2.303438     -3.344060     -2.654750
  O      -3.472496     -3.706548     -2.648093
  O      -1.354926     -4.117256     -2.718464
  C       0.944223      0.365623     -1.940666
  C       1.798271     -0.536409     -1.076747
  H       1.203488     -0.854471     -0.216388
  H       2.676429      0.003265     -0.712329
  H       2.128416     -1.420885     -1.622424
  N       1.613850      0.622493     -3.305824
  O       2.372472     -0.203795     -3.771200
  O       1.311391      1.665134     -3.860708
  H       0.865886      1.366848     -1.519055
  C      -0.562445     -0.026592      3.681636
  C       0.712702     -0.629516      4.156943
  C       1.909017      0.292347      3.891869
  C       1.872372      0.822740      2.460185
  N       0.627516      1.547275      2.159225
  C      -0.571160      0.717040      2.389743
  H      -1.507974     -0.389981      4.070766
  H       0.648757     -0.893405      5.215197
  H       0.887984     -1.577241      3.620016
  H       2.843864     -0.238681      4.068277
  H       1.878477      1.136784      4.583504
  H       2.709101      1.497440      2.274099
  H       1.956895     -0.008877      1.755468
  H       0.585441      2.357116      2.773977
  H      -1.451236      1.360813      2.308997
  H      -0.630883      0.008165      1.544203
  H       0.351538      2.353368      0.663714
  H      -0.799573      2.970304     -0.179817
  O       0.159822      3.001808     -0.076042
41
Coordinates from ORCA-job /home/rudenko/2025/kie/for_orca/m-o2nc6h4chno2ch3_piperidine/orca/ts_opt/ts_opt E -1047.498083452386
  C      -2.803453      0.329533     -2.651645
  C      -1.509163      0.757138     -2.377243
  C      -0.463300     -0.158591     -2.248259
  C      -0.720908     -1.509029     -2.410780
  C      -2.022744     -1.919149     -2.665866
  C      -3.076383     -1.025717     -2.786542
  H      -3.603084      1.051277     -2.753502
  H      -1.305366      1.812319     -2.260252
  H       0.061195     -2.244869     -2.322924
  H      -4.075313     -1.383673     -2.989468
  N      -2.291453     -3.355336     -2.807074
  O      -3.456673     -3.722359     -2.841048
  O      -1.337079     -4.122435     -2.879226
  C       0.931770      0.343287     -1.942127
  C       1.777855     -0.576622     -1.086738
  H       1.175893     -0.902131     -0.238758
  H       2.653374     -0.049683     -0.708885
  H       2.106016     -1.454420     -1.640448
  N       1.601043      0.606863     -3.303587
  O       2.266119     -0.264504     -3.827564
  O       1.381182      1.697399     -3.803651
  H       0.858322      1.338383     -1.508906
  C      -0.553994      0.033321      3.745886
  C       0.723402     -0.574675      4.220020
  C       1.934315      0.328637      3.923087
  C       1.881311      0.837127      2.483156
  N       0.637392      1.567201      2.184565
  C      -0.563355      0.745520      2.439029
  H      -1.500639     -0.312281      4.150390
  H       0.668082     -0.816029      5.283893
  H       0.880735     -1.539749      3.700516
  H       2.870531     -0.219415      4.093686
  H       1.929555      1.191261      4.605072
  H       2.724438      1.499518      2.272998
  H       1.946538     -0.008321      1.792701
  H       0.602814      2.384057      2.788378
  H      -1.440109      1.385432      2.346697
  H      -0.624135      0.020760      1.613163
  H       0.358540      2.339264      0.684785
  H      -0.788893      2.922331     -0.197350
  O       0.165620      2.968360     -0.076178
41
Coordinates from ORCA-job /home/rudenko/2025/kie/for_orca/m-o2nc6h4chno2ch3_piperidine/orca/ts_opt/ts_opt E -1047.498188478685
  C      -2.813922      0.310256     -2.608237
  C      -1.521025      0.740964     -2.331663
  C      -0.467601     -0.169620     -2.242554
  C      -0.717135     -1.525224     -2.443423
  C      -2.015529     -1.928575     -2.715094
  C      -3.075527     -1.034597     -2.799499
  H      -3.619689      1.026401     -2.675240
  H      -1.323711      1.793838     -2.182110
  H       0.070463     -2.264014     -2.379213
  H      -4.071837     -1.388150     -3.012047
  N      -2.272602     -3.356430     -2.915488
  O      -3.435480     -3.731751     -2.987911
  O      -1.311535     -4.112443     -2.991322
  C       0.925082      0.335804     -1.930218
  C       1.766024     -0.581372     -1.066279
  H       1.161142     -0.893855     -0.210989
  H       2.649184     -0.054179     -0.695529
  H       2.085146     -1.468292     -1.614167
  N       1.597513      0.579316     -3.290916
  O       2.167041     -0.337707     -3.848714
  O       1.475731      1.698897     -3.758113
  H       0.854624      1.333180     -1.499000
  C      -0.540650      0.067372      3.779884
  C       0.735471     -0.549526      4.237359
  C       1.945141      0.336898      3.910318
  C       1.875097      0.833667      2.468005
  N       0.637784      1.581155      2.191519
  C      -0.568961      0.774996      2.468717
  H      -1.483716     -0.255601      4.208852
  H       0.694856     -0.777797      5.304600
  H       0.875416     -1.517763      3.728093
  H       2.873232     -0.211759      4.070938
  H       1.956296      1.199546      4.579994
  H       2.721280      1.481509      2.235649
  H       1.913325     -0.016921      1.783309
  H       0.624998      2.398451      2.798784
  H      -1.440362      1.431000      2.391246
  H      -0.656465      0.046744      1.643536
  H       0.351497      2.344747      0.696260
  H      -0.785869      2.901773     -0.220762
  O       0.165272      2.959064     -0.078576
41
Coordinates from ORCA-job /home/rudenko/2025/kie/for_orca/m-o2nc6h4chno2ch3_piperidine/orca/ts_opt/ts_opt E -1047.498218265565
  C      -2.816794      0.307454     -2.610782
  C      -1.524286      0.731289     -2.325505
  C      -0.469243     -0.177877     -2.252520
  C      -0.714438     -1.521914     -2.484007
  C      -2.014086     -1.932375     -2.751207
  C      -3.077535     -1.043577     -2.812923
  H      -3.624257      1.026875     -2.667980
  H      -1.327492      1.782137     -2.163588
  H       0.075326     -2.246911     -2.446046
  H      -4.075024     -1.399635     -3.024481
  N      -2.271664     -3.360292     -2.973534
  O      -3.432477     -3.723722     -3.085285
  O      -1.313179     -4.121562     -3.036801
  C       0.922533      0.328379     -1.936336
  C       1.759600     -0.588672     -1.065852
  H       1.151898     -0.892154     -0.211737
  H       2.642563     -0.063990     -0.696761
  H       2.074070     -1.480980     -1.606578
  N       1.602517      0.561924     -3.294265
  O       2.073913     -0.386499     -3.892339
  O       1.585158      1.704476     -3.719394
  H       0.850596      1.324946     -1.505900
  C      -0.531425      0.091454      3.823786
  C       0.750441     -0.528171      4.268748
  C       1.963342      0.349460      3.918573
  C       1.869775      0.839555      2.474439
  N       0.630733      1.588370      2.210568
  C      -0.571471      0.782558      2.505783
  H      -1.471220     -0.219269      4.271069
  H       0.724665     -0.747403      5.339014
  H       0.877245     -1.504620      3.763173
  H       2.894368     -0.209843      4.064991
  H       1.994819      1.219608      4.588015
  H       2.717539      1.480416      2.224096
  H       1.891469     -0.016361      1.793019
  H       0.621936      2.405637      2.815028
  H      -1.444288      1.431213      2.429400
  H      -0.660384      0.047020      1.690369
  H       0.329400      2.346509      0.703343
  H      -0.806494      2.865591     -0.239025
  O       0.141854      2.950953     -0.080570
41
Coordinates from ORCA-job /home/rudenko/2025/kie/for_orca/m-o2nc6h4chno2ch3_piperidine/orca/ts_opt/ts_opt E -1047.498323068521
  C      -2.825565      0.292770     -2.607623
  C      -1.532786      0.724716     -2.328548
  C      -0.474145     -0.181857     -2.266700
  C      -0.716559     -1.530397     -2.507828
  C      -2.013755     -1.933597     -2.787645
  C      -3.079788     -1.045752     -2.837941
  H      -3.635919      1.003389     -2.646858
  H      -1.339209      1.777195     -2.160991
  H       0.076357     -2.270260     -2.461327
  H      -4.075991     -1.400700     -3.052984
  N      -2.266101     -3.357153     -3.032585
  O      -3.425657     -3.725123     -3.171542
  O      -1.305965     -4.117688     -3.077370
  C       0.916749      0.326334     -1.949451
  C       1.753238     -0.589818     -1.075820
  H       1.147133     -0.881573     -0.215296
  H       2.643011     -0.067415     -0.715890
  H       2.057156     -1.489426     -1.612173
  N       1.605837      0.552527     -3.301393
  O       1.977476     -0.414802     -3.938041
  O       1.708450      1.705205     -3.678768
  H       0.848240      1.323120     -1.516545
  C      -0.519982      0.110525      3.866560
  C       0.763756     -0.510667      4.301542
  C       1.975686      0.356691      3.926024
  C       1.866610      0.836115      2.480085
  N       0.628229      1.591012      2.229653
  C      -0.574161      0.789983      2.542394
  H      -1.455188     -0.182412      4.334321
  H       0.749226     -0.716704      5.373920
  H       0.880910     -1.491378      3.807219
  H       2.903770     -0.203614      4.064491
  H       2.019476      1.229557      4.585226
  H       2.714086      1.469462      2.212714
  H       1.874730     -0.023734      1.806097
  H       0.630089      2.409997      2.834718
  H      -1.447632      1.441102      2.469422
  H      -0.671933      0.046964      1.733861
  H       0.311586      2.350069      0.710146
  H      -0.816116      2.850437     -0.256164
  O       0.124653      2.946901     -0.078912
41
Coordinates from ORCA-job /home/rudenko/2025/kie/for_orca/m-o2nc6h4chno2ch3_piperidine/orca/ts_opt/ts_opt E -1047.498441319503
  C      -2.820390      0.298344     -2.626036
  C      -1.527312      0.722735     -2.344683
  C      -0.470314     -0.182527     -2.278934
  C      -0.715811     -1.531200     -2.511218
  C      -2.015010     -1.940236     -2.781968
  C      -3.079083     -1.049211     -2.839201
  H      -3.628782      1.019032     -2.678237
  H      -1.331277      1.773057     -2.186794
  H       0.073995     -2.253695     -2.478267
  H      -4.075425     -1.402389     -3.053701
  N      -2.273314     -3.363436     -3.022334
  O      -3.431031     -3.716310     -3.191716
  O      -1.320038     -4.131493     -3.043804
  C       0.919804      0.330907     -1.967610
  C       1.760446     -0.577350     -1.087537
  H       1.159614     -0.854472     -0.219392
  H       2.653554     -0.053098     -0.741330
  H       2.056400     -1.485565     -1.613128
  N       1.619062      0.547727     -3.315379
  O       1.894361     -0.427747     -3.989915
  O       1.835979      1.699229     -3.647081
  H       0.851110      1.327707     -1.537444
  C      -0.513994      0.107306      3.892622
  C       0.773915     -0.511810      4.317103
  C       1.980832      0.355956      3.928660
  C       1.856419      0.835034      2.483506
  N       0.615820      1.588146      2.244613
  C      -0.580952      0.782437      2.566431
  H      -1.443832     -0.176746      4.375930
  H       0.769890     -0.715241      5.390462
  H       0.887285     -1.493429      3.823493
  H       2.910054     -0.203491      4.057649
  H       2.030893      1.228478      4.587106
  H       2.701797      1.467215      2.206497
  H       1.856612     -0.025983      1.809627
  H       0.618448      2.404511      2.851271
  H      -1.458300      1.429079      2.497803
  H      -0.679804      0.036136      1.760696
  H       0.282655      2.357544      0.707867
  H      -0.840702      2.834750     -0.268983
  O       0.096429      2.950102     -0.076645
41
Coordinates from ORCA-job /home/rudenko/2025/kie/for_orca/m-o2nc6h4chno2ch3_piperidine/orca/ts_opt/ts_opt E -1047.498555351461
  C      -2.822727      0.298470     -2.663104
  C      -1.529212      0.728663     -2.385296
  C      -0.473771     -0.180746     -2.301128
  C      -0.720376     -1.529919     -2.520936
  C      -2.016874     -1.933613     -2.802268
  C      -3.080443     -1.044837     -2.871504
  H      -3.630124      1.009907     -2.714792
  H      -1.332704      1.784167     -2.241915
  H       0.069944     -2.269260     -2.459556
  H      -4.077122     -1.402148     -3.084943
  N      -2.274470     -3.361496     -3.029494
  O      -3.430717     -3.719266     -3.218569
  O      -1.323452     -4.135337     -3.012921
  C       0.915045      0.331446     -1.989708
  C       1.756736     -0.575167     -1.105566
  H       1.159405     -0.839065     -0.230810
  H       2.656056     -0.054189     -0.770298
  H       2.042458     -1.490831     -1.624527
  N       1.632415      0.548584     -3.326983
  O       1.824475     -0.418555     -4.042039
  O       1.965167      1.686514     -3.602790
  H       0.847202      1.329244     -1.559128
  C      -0.501846      0.115514      3.937909
  C       0.791049     -0.506741      4.347103
  C       1.996734      0.354984      3.937538
  C       1.849627      0.831553      2.492788
  N       0.606396      1.584682      2.267824
  C      -0.585075      0.778687      2.607023
  H      -1.424138     -0.154471      4.442312
  H       0.803235     -0.705706      5.421670
  H       0.893364     -1.492088      3.854653
  H       2.927078     -0.211845      4.051925
  H       2.064432      1.230772      4.595667
  H       2.692266      1.460659      2.201833
  H       1.838519     -0.031171      1.820202
  H       0.616182      2.402591      2.872903
  H      -1.465155      1.419853      2.541565
  H      -0.687296      0.025719      1.808556
  H       0.247177      2.364290      0.710281
  H      -0.875675      2.815235     -0.278461
  O       0.056217      2.954915     -0.075012
41
Coordinates from ORCA-job /home/rudenko/2025/kie/for_orca/m-o2nc6h4chno2ch3_piperidine/orca/ts_opt/ts_opt E -1047.498645163994
  C      -2.816640      0.305301     -2.686097
  C      -1.521728      0.729665     -2.410385
  C      -0.469909     -0.179780     -2.316103
  C      -0.723434     -1.533688     -2.514389
  C      -2.022256     -1.938656     -2.789104
  C      -3.080867     -1.042474     -2.875231
  H      -3.620711      1.030075     -2.758362
  H      -1.321090      1.782463     -2.279731
  H       0.061435     -2.264652     -2.454169
  H      -4.077008     -1.394122     -3.090653
  N      -2.287139     -3.364612     -3.005179
  O      -3.440332     -3.708891     -3.221040
  O      -1.343843     -4.143613     -2.963254
  C       0.916814      0.336980     -2.009951
  C       1.764640     -0.562518     -1.122890
  H       1.177184     -0.810699     -0.238548
  H       2.669259     -0.041828     -0.806355
  H       2.039681     -1.486005     -1.631575
  N       1.653712      0.551039     -3.336488
  O       1.765351     -0.399282     -4.089866
  O       2.100693      1.660802     -3.556392
  H       0.847623      1.332919     -1.581168
  C      -0.493638      0.104813      3.961899
  C       0.803892     -0.510177      4.360766
  C       1.999949      0.355874      3.937046
  C       1.839900      0.829168      2.493407
  N       0.591927      1.576599      2.280022
  C      -0.592305      0.762823      2.628885
  H      -1.407972     -0.155691      4.484428
  H       0.826187     -0.705076      5.435226
  H       0.907275     -1.494316      3.871605
  H       2.931133     -0.202272      4.045051
  H       2.066497      1.229962      4.589333
  H       2.677189      1.461480      2.194562
  H       1.827963     -0.033551      1.823139
  H       0.602346      2.393073      2.887444
  H      -1.478674      1.397972      2.566650
  H      -0.693719      0.005004      1.833956
  H       0.210904      2.368400      0.704959
  H      -0.907803      2.801375     -0.288714
  O       0.017513      2.956114     -0.072736
41
Coordinates from ORCA-job /home/rudenko/2025/kie/for_orca/m-o2nc6h4chno2ch3_piperidine/orca/ts_opt/ts_opt E -1047.498660840401
  C      -2.820156      0.305866     -2.738887
  C      -1.526845      0.733360     -2.457114
  C      -0.476237     -0.178799     -2.341666
  C      -0.729500     -1.532075     -2.528754
  C      -2.024153     -1.935829     -2.816416
  C      -3.082545     -1.041919     -2.920689
  H      -3.623018      1.020619     -2.812978
  H      -1.327336      1.790224     -2.336097
  H       0.055207     -2.268853     -2.449816
  H      -4.078110     -1.399251     -3.138949
  N      -2.284347     -3.367638     -3.018590
  O      -3.433149     -3.720437     -3.256515
  O      -1.342473     -4.147974     -2.936849
  C       0.906933      0.334795     -2.028011
  C       1.753529     -0.565904     -1.137957
  H       1.171136     -0.799730     -0.246007
  H       2.666403     -0.051998     -0.834320
  H       2.015370     -1.496961     -1.640500
  N       1.667669      0.552395     -3.340616
  O       1.705275     -0.365412     -4.142083
  O       2.217150      1.629375     -3.497820
  H       0.839217      1.331969     -1.597159
  C      -0.475826      0.122810      4.016414
  C       0.824798     -0.503012      4.394533
  C       2.021218      0.352012      3.945815
  C       1.834076      0.824338      2.503086
  N       0.586218      1.576883      2.305932
  C      -0.594431      0.769002      2.678712
  H      -1.378863     -0.117496      4.564982
  H       0.868852     -0.696546      5.469837
  H       0.908964     -1.491171      3.904171
  H       2.951323     -0.219602      4.036398
  H       2.113360      1.230064      4.597994
  H       2.670138      1.450852      2.188183
  H       1.804007     -0.040773      1.833496
  H       0.610543      2.396163      2.907902
  H      -1.480592      1.403725      2.622032
  H      -0.707513      0.003694      1.892150
  H       0.172961      2.375761      0.710406
  H      -0.949762      2.777017     -0.287631
  O      -0.029491      2.960459     -0.066620
41
Coordinates from ORCA-job /home/rudenko/2025/kie/for_orca/m-o2nc6h4chno2ch3_piperidine/orca/ts_opt/ts_opt E -1047.498586648489
  C      -2.827470      0.300073     -2.769677
  C      -1.534115      0.725421     -2.484498
  C      -0.483305     -0.184688     -2.376449
  C      -0.737815     -1.538467     -2.567958
  C      -2.032391     -1.943203     -2.857180
  C      -3.090072     -1.048160     -2.958960
  H      -3.630605      1.025027     -2.850739
  H      -1.335421      1.778770     -2.354122
  H       0.045549     -2.276463     -2.492925
  H      -4.083837     -1.401580     -3.184554
  N      -2.290903     -3.371988     -3.070552
  O      -3.434013     -3.718349     -3.335321
  O      -1.352004     -4.152258     -2.975004
  C       0.896348      0.325822     -2.054989
  C       1.744889     -0.585958     -1.175193
  H       1.173711     -0.812435     -0.276308
  H       2.666647     -0.084048     -0.885299
  H       1.990608     -1.518964     -1.680203
  N       1.681343      0.567135     -3.349255
  O       1.653925     -0.294154     -4.210462
  O       2.327697      1.595862     -3.428129
  H       0.828576      1.313493     -1.608673
  C      -0.456363      0.154491      4.085254
  C       0.845159     -0.470450      4.454223
  C       2.037691      0.370415      3.970135
  C       1.835023      0.817776      2.523485
  N       0.587098      1.571440      2.333877
  C      -0.590742      0.771826      2.736523
  H      -1.349704     -0.055906      4.662194
  H       0.903696     -0.643644      5.530750
  H       0.918300     -1.465901      3.982283
  H       2.964399     -0.199615      4.058155
  H       2.139862      1.256800      4.601269
  H       2.668207      1.436898      2.187362
  H       1.794709     -0.056670      1.869577
  H       0.622991      2.398802      2.924516
  H      -1.478058      1.405141      2.676119
  H      -0.711123     -0.010162      1.968427
  H       0.145085      2.357741      0.718323
  H      -0.983902      2.729145     -0.280062
  O      -0.069672      2.930986     -0.055959
41
Coordinates from ORCA-job /home/rudenko/2025/kie/for_orca/m-o2nc6h4chno2ch3_piperidine/orca/ts_opt/ts_opt E -1047.498378660322
  C      -2.832403      0.293106     -2.844480
  C      -1.546577      0.723158     -2.534221
  C      -0.495615     -0.189179     -2.396991
  C      -0.743347     -1.543210     -2.589267
  C      -2.028565     -1.948410     -2.909674
  C      -3.086528     -1.054759     -3.039607
  H      -3.635141      1.004466     -2.929380
  H      -1.355073      1.780134     -2.399419
  H       0.039923     -2.272991     -2.506992
  H      -4.075279     -1.413764     -3.283527
  N      -2.275853     -3.381660     -3.121075
  O      -3.410207     -3.737784     -3.417385
  O      -1.337377     -4.158470     -2.989674
  C       0.875652      0.322643     -2.049107
  C       1.707825     -0.583962     -1.150174
  H       1.134626     -0.784418     -0.243823
  H       2.638014     -0.087658     -0.873612
  H       1.938350     -1.531286     -1.636633
  N       1.691894      0.555106     -3.327832
  O       1.618692     -0.269873     -4.223503
  O       2.410416      1.543756     -3.355391
  H       0.804998      1.315476     -1.605911
  C      -0.417858      0.196981      4.156636
  C       0.881293     -0.458198      4.485840
  C       2.074803      0.353858      3.958762
  C       1.827880      0.801790      2.515450
  N       0.589156      1.577653      2.358121
  C      -0.587466      0.802984      2.804600
  H      -1.288905      0.021026      4.772676
  H       0.977584     -0.631482      5.561901
  H       0.912975     -1.457640      4.012928
  H       2.992043     -0.241725      4.018190
  H       2.223645      1.242730      4.585930
  H       2.660756      1.404174      2.151545
  H       1.747322     -0.074383      1.863302
  H       0.660868      2.409524      2.939072
  H      -1.465461      1.450403      2.762345
  H      -0.744788      0.014271      2.048106
  H       0.098750      2.368251      0.733936
  H      -1.045271      2.699365     -0.258596
  O      -0.135750      2.939998     -0.043066
41
Coordinates from ORCA-job /home/rudenko/2025/kie/for_orca/m-o2nc6h4chno2ch3_piperidine/orca/ts_opt/ts_opt E -1047.498318318162
  C      -2.842721      0.282933     -2.871976
  C      -1.558543      0.709653     -2.551411
  C      -0.505775     -0.197009     -2.432661
  C      -0.749921     -1.547650     -2.647355
  C      -2.034522     -1.955129     -2.972400
  C      -3.094134     -1.065114     -3.086290
  H      -3.648472      1.006087     -2.958720
  H      -1.369576      1.764221     -2.397461
  H       0.036320     -2.290298     -2.564128
  H      -4.081096     -1.421014     -3.338545
  N      -2.277987     -3.384134     -3.205853
  O      -3.404639     -3.730713     -3.530056
  O      -1.341530     -4.160671     -3.071525
  C       0.861561      0.310550     -2.069904
  C       1.694320     -0.613525     -1.185291
  H       1.135955     -0.803457     -0.270530
  H       2.637820     -0.136313     -0.926374
  H       1.899783     -1.564217     -1.675415
  N       1.697454      0.566278     -3.332306
  O       1.564442     -0.184852     -4.280531
  O       2.493630      1.487487     -3.292819
  H       0.788966      1.289493     -1.607204
  C      -0.394748      0.244587      4.233941
  C       0.903396     -0.413473      4.551741
  C       2.093546      0.378253      3.984846
  C       1.831082      0.796796      2.538758
  N       0.593027      1.575434      2.388961
  C      -0.581106      0.814539      2.871089
  H      -1.253791      0.108107      4.880619
  H       1.015617     -0.564181      5.627311
  H       0.920401     -1.420784      4.099839
  H       3.006250     -0.217733      4.042260
  H       2.253904      1.276566      4.586405
  H       2.661723      1.389332      2.151450
  H       1.740376     -0.089351      1.906844
  H       0.677468      2.415878      2.954553
  H      -1.459060      1.461067      2.824669
  H      -0.747714      0.007368      2.138707
  H       0.080041      2.339131      0.752249
  H      -1.073101      2.639682     -0.239338
  O      -0.168647      2.896179     -0.026152
41
Coordinates from ORCA-job /home/rudenko/2025/kie/for_orca/m-o2nc6h4chno2ch3_piperidine/orca/ts_opt/ts_opt E -1047.498220782492
  C      -2.852992      0.268468     -2.914985
  C      -1.572936      0.694553     -2.576656
  C      -0.517268     -0.214299     -2.463823
  C      -0.756062     -1.563198     -2.706066
  C      -2.035001     -1.964924     -3.054707
  C      -3.096748     -1.072731     -3.163413
  H      -3.659820      0.981767     -2.983230
  H      -1.391070      1.745221     -2.394452
  H       0.029300     -2.293801     -2.646311
  H      -4.080475     -1.426634     -3.430810
  N      -2.268907     -3.390144     -3.318997
  O      -3.388990     -3.738013     -3.671079
  O      -1.333904     -4.167391     -3.174724
  C       0.843932      0.289517     -2.075729
  C       1.664537     -0.642189     -1.187956
  H       1.110144     -0.816309     -0.267811
  H       2.615626     -0.177984     -0.940071
  H       1.851884     -1.599555     -1.669714
  N       1.699777      0.564363     -3.322507
  O       1.518611     -0.108363     -4.323411
  O       2.559276      1.425598     -3.218139
  H       0.764722      1.265240     -1.597910
  C      -0.356124      0.310168      4.322513
  C       0.937788     -0.368346      4.613761
  C       2.125351      0.390365      3.998006
  C       1.826909      0.788422      2.551896
  N       0.596927      1.584116      2.421890
  C      -0.573824      0.850720      2.951680
  H      -1.190947      0.217125      5.004107
  H       1.080939     -0.504007      5.688452
  H       0.921451     -1.382798      4.177410
  H       3.028929     -0.223702      4.039600
  H       2.321573      1.297471      4.580127
  H       2.655271      1.361277      2.131855
  H       1.702887     -0.107772      1.936233
  H       0.710864      2.434252      2.969083
  H      -1.444489      1.507494      2.911624
  H      -0.768715      0.028524      2.242344
  H       0.051210      2.318240      0.778760
  H      -1.113870      2.581115     -0.212396
  O      -0.215766      2.858145     -0.004445
41
Coordinates from ORCA-job /home/rudenko/2025/kie/for_orca/m-o2nc6h4chno2ch3_piperidine/orca/ts_opt/ts_opt E -1047.498448446981
  C      -2.845084      0.277614     -2.874794
  C      -1.561775      0.703986     -2.549549
  C      -0.507696     -0.205286     -2.435162
  C      -0.750410     -1.555622     -2.662594
  C      -2.033438     -1.958828     -2.996071
  C      -3.093958     -1.066253     -3.105301
  H      -3.650858      0.993740     -2.948066
  H      -1.375255      1.756260     -2.382653
  H       0.034700     -2.288664     -2.596510
  H      -4.080376     -1.420781     -3.361720
  N      -2.274204     -3.385783     -3.244115
  O      -3.401889     -3.734538     -3.568799
  O      -1.336807     -4.162958     -3.115204
  C       0.858779      0.301066     -2.064480
  C       1.685553     -0.623479     -1.176238
  H       1.124011     -0.811740     -0.262637
  H       2.628121     -0.147208     -0.914955
  H       1.890947     -1.574936     -1.663455
  N       1.693911      0.563448     -3.326682
  O       1.562973     -0.181645     -4.282507
  O       2.483932      1.492436     -3.281360
  H       0.782532      1.281448     -1.598001
  C      -0.386138      0.263419      4.250665
  C       0.910315     -0.401962      4.561752
  C       2.101408      0.381083      3.985243
  C       1.830321      0.796717      2.538859
  N       0.595420      1.581712      2.393648
  C      -0.579362      0.829687      2.886455
  H      -1.240017      0.134422      4.903177
  H       1.029584     -0.551152      5.637558
  H       0.917868     -1.410536      4.111427
  H       3.011695     -0.221687      4.038130
  H       2.272358      1.281479      4.584760
  H       2.661232      1.383384      2.144041
  H       1.729110     -0.092067      1.909257
  H       0.688576      2.424897      2.955006
  H      -1.453637      1.481668      2.843008
  H      -0.755652      0.020610      2.157505
  H       0.080956      2.332729      0.761030
  H      -1.076280      2.629165     -0.230173
  O      -0.171465      2.884154     -0.020498
41
Coordinates from ORCA-job /home/rudenko/2025/kie/for_orca/m-o2nc6h4chno2ch3_piperidine/orca/ts_opt/ts_opt E -1047.498527171046
  C      -2.845343      0.276571     -2.866114
  C      -1.562278      0.701956     -2.539096
  C      -0.507706     -0.205694     -2.430327
  C      -0.749245     -1.554422     -2.663748
  C      -2.032670     -1.958662     -2.996110
  C      -3.093919     -1.067646     -3.099623
  H      -3.651894      0.994771     -2.939007
  H      -1.375843      1.754227     -2.369118
  H       0.037094     -2.290797     -2.596586
  H      -4.080493     -1.421933     -3.355910
  N      -2.273484     -3.384664     -3.248483
  O      -3.402510     -3.732393     -3.567894
  O      -1.334666     -4.161756     -3.128898
  C       0.859560      0.299885     -2.058952
  C       1.685503     -0.626434     -1.172320
  H       1.122037     -0.817236     -0.260114
  H       2.628052     -0.150434     -0.907524
  H       1.892376     -1.576775     -1.662178
  N       1.691374      0.564020     -3.322887
  O       1.577992     -0.195169     -4.268819
  O       2.461501      1.508490     -3.287818
  H       0.782733      1.279225     -1.592551
  C      -0.388341      0.264179      4.243678
  C       0.907653     -0.402322      4.555350
  C       2.099606      0.381825      3.982155
  C       1.831113      0.799057      2.535862
  N       0.596518      1.584003      2.389059
  C      -0.579555      0.832835      2.880274
  H      -1.244272      0.132308      4.893475
  H       1.025055     -0.553403      5.631001
  H       0.915670     -1.410176      4.103162
  H       3.010018     -0.220315      4.035989
  H       2.268604      1.281342      4.582854
  H       2.662382      1.386228      2.142835
  H       1.731332     -0.088975      1.905572
  H       0.688613      2.427029      2.950145
  H      -1.452672      1.486674      2.837739
  H      -0.756974      0.025388      2.150063
  H       0.089673      2.330149      0.761735
  H      -1.070250      2.627700     -0.225631
  O      -0.162346      2.881344     -0.021240
41
Coordinates from ORCA-job /home/rudenko/2025/kie/for_orca/m-o2nc6h4chno2ch3_piperidine/orca/ts_opt/ts_opt E -1047.498656658717
  C      -2.845437      0.273242     -2.843563
  C      -1.562985      0.698438     -2.511952
  C      -0.507559     -0.211781     -2.409702
  C      -0.747455     -1.559715     -2.657944
  C      -2.030269     -1.959481     -2.996607
  C      -3.092169     -1.066131     -3.093056
  H      -3.651824      0.987301     -2.906648
  H      -1.378238      1.747684     -2.329078
  H       0.037981     -2.288564     -2.604015
  H      -4.078385     -1.417762     -3.353344
  N      -2.270187     -3.382980     -3.263168
  O      -3.404459     -3.732505     -3.562397
  O      -1.325409     -4.156720     -3.174436
  C       0.861149      0.295049     -2.035422
  C       1.684128     -0.632446     -1.151224
  H       1.109306     -0.839531     -0.249834
  H       2.617715     -0.150755     -0.866124
  H       1.907528     -1.574034     -1.648889
  N       1.679886      0.563056     -3.305363
  O       1.645822     -0.254440     -4.207810
  O       2.359269      1.575812     -3.317148
  H       0.779773      1.274662     -1.568593
  C      -0.393079      0.267215      4.220645
  C       0.900232     -0.401287      4.534225
  C       2.095693      0.382013      3.966813
  C       1.833500      0.798800      2.520204
  N       0.601566      1.589959      2.371747
  C      -0.579228      0.845310      2.860355
  H      -1.255110      0.123415      4.860220
  H       1.011683     -0.554751      5.609587
  H       0.908950     -1.407263      4.080405
  H       3.005701     -0.220174      4.023262
  H       2.261780      1.281260      4.568396
  H       2.668681      1.382495      2.127510
  H       1.731163     -0.090793      1.891372
  H       0.697589      2.434972      2.932172
  H      -1.445945      1.506105      2.822267
  H      -0.763907      0.043929      2.126103
  H       0.116569      2.319701      0.767363
  H      -1.048592      2.640860     -0.208828
  O      -0.135429      2.869834     -0.017503
41
Coordinates from ORCA-job /home/rudenko/2025/kie/for_orca/m-o2nc6h4chno2ch3_piperidine/orca/ts_opt/ts_opt E -1047.498804834694
  C      -2.838289      0.274977     -2.840558
  C      -1.558924      0.698266     -2.496639
  C      -0.505344     -0.209772     -2.388202
  C      -0.743387     -1.556532     -2.637926
  C      -2.024959     -1.958257     -2.982651
  C      -3.085179     -1.066669     -3.086250
  H      -3.643584      0.993689     -2.916772
  H      -1.374089      1.748181     -2.313915
  H       0.042632     -2.290672     -2.569822
  H      -4.069886     -1.417525     -3.353396
  N      -2.266893     -3.381431     -3.246709
  O      -3.405705     -3.731756     -3.525870
  O      -1.319724     -4.155142     -3.176140
  C       0.862987      0.299437     -2.008373
  C       1.682073     -0.625390     -1.119924
  H       1.095616     -0.841681     -0.226606
  H       2.609660     -0.137803     -0.818305
  H       1.918825     -1.563344     -1.620949
  N       1.676240      0.560970     -3.282643
  O       1.731579     -0.313503     -4.127049
  O       2.256871      1.630415     -3.356297
  H       0.775372      1.280735     -1.548282
  C      -0.394149      0.263219      4.194762
  C       0.896861     -0.416540      4.497813
  C       2.094037      0.367911      3.937534
  C       1.829760      0.797648      2.494078
  N       0.602047      1.593758      2.351800
  C      -0.581950      0.856615      2.841103
  H      -1.258703      0.108336      4.829273
  H       1.010419     -0.583332      5.571855
  H       0.898382     -1.418185      4.031327
  H       3.002372     -0.238072      3.987397
  H       2.263985      1.261512      4.548028
  H       2.664224      1.380715      2.103608
  H       1.722771     -0.086348      1.859422
  H       0.703927      2.436253      2.912578
  H      -1.441095      1.529419      2.816439
  H      -0.782624      0.064629      2.099682
  H       0.128728      2.319211      0.769819
  H      -1.048648      2.651654     -0.187546
  O      -0.126236      2.874403     -0.015697
41
Coordinates from ORCA-job /home/rudenko/2025/kie/for_orca/m-o2nc6h4chno2ch3_piperidine/orca/ts_opt/ts_opt E -1047.498827967551
  C      -2.838999      0.273114     -2.844619
  C      -1.560464      0.694622     -2.494234
  C      -0.507465     -0.215644     -2.387740
  C      -0.745123     -1.561251     -2.646524
  C      -2.026660     -1.960319     -2.995898
  C      -3.085863     -1.066186     -3.099306
  H      -3.643194      0.990155     -2.917677
  H      -1.375489      1.743301     -2.303746
  H       0.039803     -2.294513     -2.581216
  H      -4.070227     -1.415685     -3.371117
  N      -2.269782     -3.382567     -3.266657
  O      -3.413446     -3.734810     -3.522648
  O      -1.318717     -4.152888     -3.223618
  C       0.860460      0.291496     -2.001445
  C       1.681099     -0.643769     -1.125763
  H       1.087576     -0.885096     -0.244513
  H       2.600267     -0.155277     -0.802535
  H       1.933136     -1.567577     -1.644590
  N       1.664789      0.576886     -3.274892
  O       1.813195     -0.321477     -4.082966
  O       2.135393      1.695217     -3.392821
  H       0.766813      1.266702     -1.530619
  C      -0.393879      0.279738      4.200337
  C       0.894374     -0.402511      4.507551
  C       2.095775      0.374580      3.943803
  C       1.837149      0.791073      2.497089
  N       0.612424      1.594247      2.348527
  C      -0.577605      0.870119      2.845380
  H      -1.262819      0.119828      4.827672
  H       1.004272     -0.563958      5.581992
  H       0.893752     -1.406140      4.046662
  H       3.002922     -0.232271      4.000318
  H       2.264829      1.272810      4.546208
  H       2.677502      1.365437      2.100002
  H       1.725012     -0.100238      1.872765
  H       0.720578      2.443142      2.899590
  H      -1.430040      1.550477      2.820778
  H      -0.787951      0.077659      2.108001
  H       0.149361      2.295012      0.780367
  H      -1.039957      2.649202     -0.164289
  O      -0.112800      2.847360     -0.007608
41
Coordinates from ORCA-job /home/rudenko/2025/kie/for_orca/m-o2nc6h4chno2ch3_piperidine/orca/ts_opt/ts_opt E -1047.498839020069
  C      -2.825231      0.279321     -2.863527
  C      -1.549875      0.701168     -2.503935
  C      -0.501862     -0.210615     -2.373576
  C      -0.740363     -1.558340     -2.616505
  C      -2.020216     -1.958235     -2.972359
  C      -3.074683     -1.064698     -3.098462
  H      -3.625839      1.002012     -2.961836
  H      -1.362875      1.751011     -2.323736
  H       0.041836     -2.295552     -2.528029
  H      -4.056687     -1.414531     -3.377164
  N      -2.268834     -3.383025     -3.222458
  O      -3.417366     -3.736618     -3.454677
  O      -1.318189     -4.154859     -3.186456
  C       0.862847      0.300055     -1.979158
  C       1.680032     -0.629531     -1.096763
  H       1.078314     -0.878991     -0.221698
  H       2.591816     -0.132519     -0.761714
  H       1.945678     -1.549939     -1.615769
  N       1.663777      0.580771     -3.257144
  O       1.908842     -0.351831     -4.000202
  O       2.023286      1.730115     -3.450664
  H       0.759956      1.278395     -1.514095
  C      -0.392509      0.269080      4.179107
  C       0.893004     -0.425697      4.471627
  C       2.095174      0.351540      3.912498
  C       1.830084      0.784963      2.470326
  N       0.610641      1.594752      2.333307
  C      -0.580968      0.877710      2.832306
  H      -1.261894      0.099998      4.804549
  H       1.007937     -0.601817      5.543894
  H       0.883052     -1.423669      3.997424
  H       2.999714     -0.260860      3.958748
  H       2.271815      1.242708      4.525326
  H       2.667506      1.359192      2.075560
  H       1.710458     -0.098350      1.836671
  H       0.727700      2.439712      2.887645
  H      -1.425548      1.569721      2.823917
  H      -0.809555      0.096604      2.087108
  H       0.149397      2.299119      0.782437
  H      -1.053583      2.664027     -0.138816
  O      -0.116789      2.857703     -0.003709
41
Coordinates from ORCA-job /home/rudenko/2025/kie/for_orca/m-o2nc6h4chno2ch3_piperidine/orca/ts_opt/ts_opt E -1047.498824632423
  C      -2.823874      0.280781     -2.890349
  C      -1.551075      0.701043     -2.521243
  C      -0.504641     -0.212390     -2.380859
  C      -0.742323     -1.560601     -2.621772
  C      -2.021237     -1.960344     -2.982600
  C      -3.073127     -1.062780     -3.123237
  H      -3.622597      1.000149     -2.993480
  H      -1.363540      1.751975     -2.341323
  H       0.038072     -2.297771     -2.525982
  H      -4.053841     -1.413522     -3.407071
  N      -2.270325     -3.386736     -3.225853
  O      -3.421994     -3.744114     -3.434263
  O      -1.316404     -4.154497     -3.207031
  C       0.857518      0.296260     -1.974568
  C       1.675261     -0.643849     -1.104889
  H       1.070284     -0.914425     -0.239822
  H       2.580847     -0.148039     -0.754192
  H       1.951457     -1.551662     -1.639543
  N       1.649872      0.600954     -3.252512
  O       1.989045     -0.335027     -3.954078
  O       1.891828      1.770517     -3.499922
  H       0.748320      1.266782     -1.499164
  C      -0.389789      0.282676      4.190562
  C       0.892936     -0.416856      4.485187
  C       2.099344      0.352695      3.921890
  C       1.838677      0.775533      2.477454
  N       0.622635      1.594806      2.336107
  C      -0.575151      0.890319      2.843136
  H      -1.261558      0.109590      4.810421
  H       1.006352     -0.589831      5.557611
  H       0.878706     -1.416666      4.015038
  H       3.001991     -0.261557      3.973724
  H       2.276905      1.247621      4.526638
  H       2.683953      1.340871      2.076569
  H       1.712602     -0.113598      1.853231
  H       0.747366      2.444458      2.882168
  H      -1.413650      1.588853      2.834722
  H      -0.813421      0.109282      2.102059
  H       0.164470      2.278604      0.792815
  H      -1.049665      2.665556     -0.111541
  O      -0.110228      2.834940      0.005961
41
Coordinates from ORCA-job /home/rudenko/2025/kie/for_orca/m-o2nc6h4chno2ch3_piperidine/orca/ts_opt/ts_opt E -1047.498898683254
  C      -2.824835      0.280092     -2.889549
  C      -1.550659      0.701032     -2.525457
  C      -0.504097     -0.212387     -2.387026
  C      -0.742937     -1.560767     -2.626135
  C      -2.022269     -1.960116     -2.984563
  C      -3.074790     -1.064167     -3.120750
  H      -3.624089      1.001392     -2.992147
  H      -1.362937      1.751442     -2.346537
  H       0.037656     -2.298699     -2.532280
  H      -4.056118     -1.414732     -3.401865
  N      -2.271570     -3.386357     -3.227517
  O      -3.421749     -3.742004     -3.447578
  O      -1.319490     -4.156270     -3.197061
  C       0.858554      0.295939     -1.983620
  C       1.676660     -0.641395     -1.110547
  H       1.076536     -0.900630     -0.238302
  H       2.587476     -0.147143     -0.771454
  H       1.943906     -1.555713     -1.638502
  N       1.656095      0.597448     -3.259783
  O       1.945001     -0.332079     -3.992164
  O       1.957427      1.760071     -3.471323
  H       0.751364      1.268222     -1.508921
  C      -0.388178      0.281405      4.197837
  C       0.895433     -0.415727      4.492152
  C       2.099913      0.354115      3.926056
  C       1.835924      0.778023      2.481994
  N       0.618792      1.593380      2.342326
  C      -0.575863      0.884508      2.848873
  H      -1.257432      0.115350      4.823697
  H       1.010892     -0.586400      5.564787
  H       0.881732     -1.416223      4.023912
  H       3.002706     -0.260352      3.975766
  H       2.279315      1.248995      4.531379
  H       2.677634      1.345952      2.081745
  H       1.711557     -0.109625      1.855507
  H       0.741095      2.441560      2.890654
  H      -1.417701      1.579289      2.838195
  H      -0.809422      0.100607      2.108872
  H       0.153745      2.284543      0.789509
  H      -1.056541      2.657852     -0.122836
  O      -0.118736      2.839569      0.002660
41
Coordinates from ORCA-job /home/rudenko/2025/kie/for_orca/m-o2nc6h4chno2ch3_piperidine/orca/ts_opt/ts_opt E -1047.498934565859
  C      -2.827743      0.279244     -2.897802
  C      -1.553290      0.700029     -2.535507
  C      -0.505856     -0.212483     -2.397930
  C      -0.744508     -1.560815     -2.635729
  C      -2.023963     -1.961439     -2.992167
  C      -3.077123     -1.064880     -3.128421
  H      -3.627819      0.998716     -2.997017
  H      -1.366015      1.751512     -2.358109
  H       0.036574     -2.298249     -2.543724
  H      -4.058804     -1.416127     -3.407272
  N      -2.271900     -3.388018     -3.234166
  O      -3.419135     -3.742569     -3.469945
  O      -1.321601     -4.159062     -3.187702
  C       0.856137      0.296114     -1.994470
  C       1.675680     -0.642401     -1.122631
  H       1.083555     -0.890285     -0.242469
  H       2.593930     -0.153598     -0.797758
  H       1.929809     -1.562911     -1.646305
  N       1.660616      0.596352     -3.266749
  O       1.888657     -0.321527     -4.033741
  O       2.035886      1.744022     -3.434472
  H       0.751867      1.267267     -1.518990
  C      -0.384252      0.284562      4.214038
  C       0.900598     -0.411313      4.507256
  C       2.103082      0.357194      3.935076
  C       1.834769      0.779597      2.491286
  N       0.616158      1.594234      2.354224
  C      -0.575749      0.881413      2.862656
  H      -1.248479      0.127144      4.847562
  H       1.020087     -0.578653      5.580097
  H       0.885821     -1.413393      4.042251
  H       3.005515     -0.257114      3.983355
  H       2.284815      1.252690      4.537601
  H       2.676335      1.347948      2.089036
  H       1.709593     -0.108464      1.865219
  H       0.738132      2.441601      2.904309
  H      -1.421734      1.570595      2.847940
  H      -0.803434      0.093229      2.125889
  H       0.139937      2.291062      0.787765
  H      -1.065024      2.646700     -0.133668
  O      -0.131124      2.842079      0.001187
41
Coordinates from ORCA-job /home/rudenko/2025/kie/for_orca/m-o2nc6h4chno2ch3_piperidine/orca/ts_opt/ts_opt E -1047.498948438232
  C      -2.825314      0.279234     -2.911284
  C      -1.551027      0.701284     -2.548547
  C      -0.505375     -0.212949     -2.403165
  C      -0.745095     -1.562241     -2.636346
  C      -2.023344     -1.961130     -2.997028
  C      -3.075381     -1.065953     -3.137340
  H      -3.624480      1.001940     -3.018194
  H      -1.363911      1.751546     -2.371964
  H       0.034783     -2.300543     -2.539893
  H      -4.056407     -1.416822     -3.418197
  N      -2.272530     -3.388483     -3.233720
  O      -3.419096     -3.742219     -3.475539
  O      -1.324024     -4.161355     -3.177357
  C       0.855112      0.296806     -1.996404
  C       1.674387     -0.639033     -1.121645
  H       1.085649     -0.879606     -0.236529
  H       2.595945     -0.150778     -0.804671
  H       1.923019     -1.563446     -1.640358
  N       1.665344      0.596816     -3.265604
  O       1.878431     -0.317923     -4.041199
  O       2.061597      1.739557     -3.421090
  H       0.747836      1.268913     -1.520872
  C      -0.377436      0.287915      4.226515
  C       0.906599     -0.410612      4.512291
  C       2.107447      0.352745      3.930623
  C       1.829643      0.776850      2.488696
  N       0.612906      1.592573      2.359868
  C      -0.576164      0.881507      2.875044
  H      -1.237084      0.140599      4.870220
  H       1.032879     -0.575964      5.584493
  H       0.885696     -1.413076      4.049555
  H       3.007821     -0.266104      3.971761
  H       2.298541      1.247940      4.532681
  H       2.667338      1.344235      2.082429
  H       1.699366     -0.109015      1.861355
  H       0.739741      2.438238      2.910730
  H      -1.421736      1.571697      2.863721
  H      -0.808515      0.091926      2.140421
  H       0.125136      2.293578      0.788924
  H      -1.080373      2.638493     -0.134455
  O      -0.147926      2.842860      0.002073
41
Coordinates from ORCA-job /home/rudenko/2025/kie/for_orca/m-o2nc6h4chno2ch3_piperidine/orca/ts_opt/ts_opt E -1047.498903957633
  C      -2.832095      0.275222     -2.948492
  C      -1.560423      0.694066     -2.576364
  C      -0.512886     -0.216195     -2.432869
  C      -0.749635     -1.564481     -2.670602
  C      -2.026344     -1.967302     -3.035177
  C      -3.079337     -1.069119     -3.180182
  H      -3.631915      0.991363     -3.048388
  H      -1.375403      1.747995     -2.396530
  H       0.031167     -2.302792     -2.574145
  H      -4.059780     -1.421339     -3.462887
  N      -2.269826     -3.394786     -3.275191
  O      -3.409814     -3.748830     -3.543245
  O      -1.322559     -4.166247     -3.195673
  C       0.843749      0.292108     -2.015127
  C       1.664426     -0.654323     -1.151429
  H       1.091231     -0.879289     -0.254310
  H       2.600631     -0.182249     -0.857384
  H       1.885756     -1.586349     -1.669856
  N       1.668960      0.602421     -3.272282
  O       1.804910     -0.281962     -4.098911
  O       2.164099      1.712803     -3.361196
  H       0.736346      1.256203     -1.529148
  C      -0.359798      0.318219      4.284775
  C       0.924182     -0.389676      4.558895
  C       2.122597      0.359061      3.951496
  C       1.828196      0.775345      2.510729
  N       0.612779      1.599807      2.392463
  C      -0.573929      0.894403      2.927751
  H      -1.203420      0.198063      4.950710
  H       1.067251     -0.546461      5.630945
  H       0.887809     -1.397622      4.105440
  H       3.017564     -0.265952      3.985346
  H       2.329871      1.256510      4.540911
  H       2.669157      1.335161      2.090042
  H       1.684542     -0.114440      1.891093
  H       0.751113      2.447189      2.938682
  H      -1.422086      1.581033      2.913106
  H      -0.808794      0.094407      2.206334
  H       0.097829      2.292579      0.798840
  H      -1.105224      2.597939     -0.136743
  O      -0.180896      2.827516      0.008574
41
Coordinates from ORCA-job /home/rudenko/2025/kie/for_orca/m-o2nc6h4chno2ch3_piperidine/orca/ts_opt/ts_opt E -1047.498941532942
  C      -2.832937      0.269207     -2.957977
  C      -1.560583      0.690334     -2.585886
  C      -0.514178     -0.224576     -2.442250
  C      -0.751276     -1.571871     -2.689050
  C      -2.025961     -1.968717     -3.062213
  C      -3.079241     -1.074177     -3.198525
  H      -3.633293      0.992760     -3.061442
  H      -1.377866      1.737895     -2.393839
  H       0.028381     -2.310802     -2.597529
  H      -4.058546     -1.423950     -3.486240
  N      -2.269631     -3.394305     -3.311626
  O      -3.409170     -3.746462     -3.587871
  O      -1.323995     -4.168349     -3.229841
  C       0.840543      0.283718     -2.018475
  C       1.662199     -0.660637     -1.153532
  H       1.094692     -0.879779     -0.249629
  H       2.601494     -0.188562     -0.868996
  H       1.878259     -1.594419     -1.667431
  N       1.673480      0.605575     -3.267924
  O       1.801734     -0.265259     -4.111498
  O       2.184035      1.710606     -3.334980
  H       0.726678      1.247091     -1.525756
  C      -0.344840      0.342017      4.316596
  C       0.934176     -0.372833      4.579285
  C       2.130462      0.358442      3.948777
  C       1.819128      0.769617      2.509830
  N       0.610841      1.599565      2.403432
  C      -0.571779      0.905894      2.957291
  H      -1.179335      0.246394      5.001175
  H       1.089557     -0.520200      5.650047
  H       0.883503     -1.382468      4.136713
  H       3.019227     -0.277928      3.972059
  H       2.358111      1.257937      4.531391
  H       2.652979      1.321688      2.076774
  H       1.661454     -0.119867      1.894130
  H       0.761728      2.447214      2.944471
  H      -1.415155      1.598489      2.947299
  H      -0.820114      0.101349      2.244671
  H       0.082148      2.282831      0.807291
  H      -1.124693      2.567499     -0.131607
  O      -0.202216      2.809041      0.012886
41
Coordinates from ORCA-job /home/rudenko/2025/kie/for_orca/m-o2nc6h4chno2ch3_piperidine/orca/ts_opt/ts_opt E -1047.498914920172
  C      -2.842808      0.256210     -2.978911
  C      -1.574467      0.674822     -2.594261
  C      -0.522956     -0.233482     -2.464916
  C      -0.752573     -1.578169     -2.732366
  C      -2.024601     -1.978582     -3.113835
  C      -3.082095     -1.084219     -3.241407
  H      -3.645075      0.973160     -3.069312
  H      -1.397068      1.725432     -2.387865
  H       0.030665     -2.315723     -2.649303
  H      -4.059369     -1.434058     -3.536210
  N      -2.259544     -3.403639     -3.382387
  O      -3.392702     -3.755557     -3.679047
  O      -1.311433     -4.173511     -3.299418
  C       0.827705      0.272746     -2.028808
  C       1.650106     -0.682920     -1.175814
  H       1.093415     -0.892566     -0.263896
  H       2.600803     -0.224018     -0.905580
  H       1.845439     -1.621936     -1.693965
  N       1.668244      0.615533     -3.267283
  O       1.763904     -0.222596     -4.147530
  O       2.219052      1.703160     -3.288284
  H       0.711903      1.225562     -1.521831
  C      -0.324538      0.393818      4.376635
  C       0.946776     -0.344948      4.623876
  C       2.144932      0.358351      3.963944
  C       1.815220      0.763532      2.526634
  N       0.616476      1.612323      2.430817
  C      -0.568193      0.941926      3.013225
  H      -1.141554      0.336593      5.084413
  H       1.120995     -0.485062      5.693606
  H       0.867832     -1.359731      4.191810
  H       3.021377     -0.293868      3.977492
  H       2.400342      1.257820      4.532894
  H       2.653657      1.300243      2.076180
  H       1.635368     -0.128302      1.920588
  H       0.789909      2.464173      2.959284
  H      -1.403382      1.644848      3.005840
  H      -0.837128      0.130246      2.316319
  H       0.072706      2.269408      0.827003
  H      -1.137190      2.515837     -0.120109
  O      -0.220149      2.777144      0.021775
41
Coordinates from ORCA-job /home/rudenko/2025/kie/for_orca/m-o2nc6h4chno2ch3_piperidine/orca/ts_opt/ts_opt E -1047.498963029095
  C      -2.832946      0.271566     -2.953881
  C      -1.561388      0.691984     -2.580468
  C      -0.514222     -0.220031     -2.437830
  C      -0.750665     -1.568048     -2.681324
  C      -2.025947     -1.967929     -3.051699
  C      -3.079192     -1.072149     -3.191803
  H      -3.632990      0.991892     -3.056367
  H      -1.377813      1.743089     -2.393537
  H       0.029773     -2.306572     -2.587175
  H      -4.058463     -1.422685     -3.478854
  N      -2.269260     -3.395171     -3.297186
  O      -3.409349     -3.748577     -3.566595
  O      -1.321714     -4.166976     -3.221376
  C       0.841402      0.286967     -2.015627
  C       1.660515     -0.659282     -1.150641
  H       1.086774     -0.883951     -0.252494
  H       2.597215     -0.186624     -0.856549
  H       1.881982     -1.591394     -1.669062
  N       1.669743      0.604511     -3.269169
  O       1.817195     -0.276925     -4.098090
  O       2.153722      1.720242     -3.355881
  H       0.730546      1.250252     -1.525914
  C      -0.351192      0.332948      4.301493
  C       0.929852     -0.379913      4.570427
  C       2.127946      0.359027      3.951527
  C       1.825334      0.771367      2.510848
  N       0.614293      1.598909      2.396541
  C      -0.571465      0.902593      2.943013
  H      -1.191912      0.224517      4.975803
  H       1.078927     -0.531836      5.642061
  H       0.885077     -1.389270      4.122576
  H       3.019696     -0.272175      3.981102
  H       2.345775      1.258276      4.537147
  H       2.662447      1.326261      2.083330
  H       1.674275     -0.118671      1.894462
  H       0.759881      2.447865      2.937481
  H      -1.415523      1.595133      2.931312
  H      -0.816556      0.100082      2.226623
  H       0.093346      2.283659      0.803845
  H      -1.114860      2.581836     -0.129836
  O      -0.190259      2.815204      0.011767
41
Coordinates from ORCA-job /home/rudenko/2025/kie/for_orca/m-o2nc6h4chno2ch3_piperidine/orca/ts_opt/ts_opt E -1047.498989979531
  C      -2.834364      0.267814     -2.952163
  C      -1.563301      0.687325     -2.576015
  C      -0.515352     -0.225535     -2.437865
  C      -0.750189     -1.571725     -2.691079
  C      -2.024809     -1.969997     -3.064559
  C      -3.079101     -1.074844     -3.198529
  H      -3.635303      0.988212     -3.050094
  H      -1.381386      1.735976     -2.381098
  H       0.030685     -2.310187     -2.601675
  H      -4.058192     -1.424927     -3.487521
  N      -2.266678     -3.394737     -3.320409
  O      -3.406627     -3.747333     -3.592943
  O      -1.319056     -4.167041     -3.247754
  C       0.839349      0.282302     -2.012862
  C       1.659275     -0.663873     -1.148536
  H       1.087650     -0.887546     -0.248837
  H       2.595995     -0.191096     -0.856966
  H       1.879727     -1.595488     -1.665429
  N       1.669452      0.604855     -3.263704
  O       1.818329     -0.273414     -4.095521
  O       2.155139      1.720170     -3.344202
  H       0.726195      1.244900     -1.520045
  C      -0.345745      0.346011      4.312646
  C       0.932297     -0.372114      4.575322
  C       2.130248      0.358429      3.946800
  C       1.820990      0.769587      2.507467
  N       0.613635      1.603179      2.399736
  C      -0.571353      0.913044      2.954028
  H      -1.181473      0.246574      4.993832
  H       1.086744     -0.521598      5.646167
  H       0.879960     -1.381480      4.130904
  H       3.018409     -0.277864      3.971480
  H       2.356963      1.257366      4.529222
  H       2.658064      1.319561      2.074114
  H       1.661395     -0.120878      1.892760
  H       0.766650      2.452247      2.939001
  H      -1.412130      1.608308      2.945273
  H      -0.823037      0.110463      2.240904
  H       0.091623      2.280598      0.809674
  H      -1.117432      2.568306     -0.125468
  O      -0.193245      2.806448      0.013946
41
Coordinates from ORCA-job /home/rudenko/2025/kie/for_orca/m-o2nc6h4chno2ch3_piperidine/orca/ts_opt/ts_opt E -1047.498969495706
  C      -2.854006      0.231091     -2.973259
  C      -1.589988      0.653068     -2.574058
  C      -0.530704     -0.248775     -2.468698
  C      -0.748143     -1.588559     -2.776557
  C      -2.015670     -1.988525     -3.174280
  C      -3.079992     -1.101018     -3.278818
  H      -3.663008      0.947308     -3.049459
  H      -1.422396      1.698798     -2.337514
  H       0.040629     -2.320106     -2.713108
  H      -4.052373     -1.449279     -3.588995
  N      -2.238005     -3.408293     -3.485234
  O      -3.368495     -3.762163     -3.788856
  O      -1.281983     -4.170741     -3.429569
  C       0.815264      0.255757     -2.016657
  C       1.636710     -0.711364     -1.176068
  H       1.077026     -0.931570     -0.267548
  H       2.588295     -0.255152     -0.896174
  H       1.834415     -1.644764     -1.707725
  N       1.652783      0.623307     -3.248370
  O       1.794689     -0.215098     -4.121651
  O       2.148481      1.738116     -3.275391
  H       0.692647      1.197875     -1.492918
  C      -0.300418      0.467693      4.429704
  C       0.952749     -0.311739      4.650368
  C       2.155609      0.349197      3.954716
  C       1.803031      0.751592      2.521797
  N       0.626444      1.629655      2.443633
  C      -0.563461      1.005330      3.066625
  H      -1.100392      0.453875      5.162822
  H       1.150383     -0.448777      5.716641
  H       0.829288     -1.328161      4.228365
  H       3.012596     -0.330417      3.951912
  H       2.452777      1.246009      4.510244
  H       2.640808      1.263255      2.048519
  H       1.589038     -0.138296      1.928173
  H       0.836441      2.484516      2.950917
  H      -1.374581      1.739929      3.073806
  H      -0.880981      0.193474      2.387954
  H       0.085739      2.240897      0.859927
  H      -1.133592      2.457838     -0.085309
  O      -0.217655      2.724216      0.040093
41
Coordinates from ORCA-job /home/rudenko/2025/kie/for_orca/m-o2nc6h4chno2ch3_piperidine/orca/ts_opt/ts_opt E -1047.499031260757
  C      -2.861770      0.203787     -2.985346
  C      -1.603358      0.620614     -2.567621
  C      -0.537006     -0.276422     -2.483404
  C      -0.742228     -1.606211     -2.832598
  C      -2.004674     -2.003467     -3.246465
  C      -3.076658     -1.123876     -3.327035
  H      -3.676294      0.911635     -3.038463
  H      -1.446120      1.656887     -2.298409
  H       0.051547     -2.335216     -2.786330
  H      -4.046251     -1.472736     -3.648184
  N      -2.214585     -3.411429     -3.602371
  O      -3.340157     -3.762464     -3.930400
  O      -1.256668     -4.172694     -3.552749
  C       0.802256      0.235828     -2.016744
  C       1.636245     -0.733980     -1.191388
  H       1.096475     -0.949829     -0.270060
  H       2.591711     -0.278767     -0.933021
  H       1.822355     -1.665574     -1.720193
  N       1.644988      0.642170     -3.231911
  O       1.774024     -0.161077     -4.139456
  O       2.169330      1.743121     -3.205597
  H       0.664763      1.167029     -1.468573
  C      -0.260175      0.562436      4.514805
  C       0.961245     -0.268607      4.692246
  C       2.160537      0.325288      3.934206
  C       1.766709      0.728909      2.513518
  N       0.625627      1.657985      2.476057
  C      -0.558931      1.087045      3.154016
  H      -1.012263      0.617355      5.290329
  H       1.197819     -0.399184      5.750067
  H       0.776216     -1.279753      4.292068
  H       2.981844     -0.394689      3.900791
  H       2.523959      1.210770      4.464821
  H       2.609414      1.200106      2.001591
  H       1.488406     -0.159199      1.934487
  H       0.892036      2.510722      2.965095
  H      -1.340854      1.844756      3.179189
  H      -0.926420      0.279431      2.501728
  H       0.068953      2.223487      0.903240
  H      -1.155421      2.360679     -0.052189
  O      -0.246625      2.665132      0.060255
41
Coordinates from ORCA-job /home/rudenko/2025/kie/for_orca/m-o2nc6h4chno2ch3_piperidine/orca/ts_opt/ts_opt E -1047.499089024674
  C      -2.850796      0.227188     -2.978389
  C      -1.588159      0.646431     -2.574778
  C      -0.528958     -0.257205     -2.467322
  C      -0.744893     -1.594411     -2.779450
  C      -2.011289     -1.992962     -3.180082
  C      -3.076249     -1.106813     -3.284072
  H      -3.660110      0.940637     -3.051102
  H      -1.421883      1.688563     -2.334698
  H       0.043895     -2.326929     -2.715006
  H      -4.048799     -1.456759     -3.594861
  N      -2.232622     -3.408625     -3.497639
  O      -3.362869     -3.761114     -3.807506
  O      -1.278647     -4.173907     -3.436366
  C       0.815583      0.253709     -2.014839
  C       1.644161     -0.708301     -1.175668
  H       1.091800     -0.927878     -0.262806
  H       2.592940     -0.246986     -0.903676
  H       1.843199     -1.639655     -1.701419
  N       1.654118      0.630270     -3.243282
  O       1.790561     -0.200919     -4.124191
  O       2.163857      1.738141     -3.255616
  H       0.687087      1.196378     -1.486474
  C      -0.291350      0.485473      4.447402
  C       0.951894     -0.308344      4.649265
  C       2.152596      0.334663      3.935080
  C       1.785357      0.742815      2.508442
  N       0.619900      1.639020      2.450757
  C      -0.566605      1.026653      3.087872
  H      -1.074843      0.486709      5.194116
  H       1.162063     -0.447433      5.711846
  H       0.810754     -1.319587      4.230076
  H       2.998472     -0.357055      3.918224
  H       2.470456      1.225307      4.486293
  H       2.625974      1.242402      2.022932
  H       1.547174     -0.145950      1.915409
  H       0.848595      2.490919      2.958281
  H      -1.368952      1.764764      3.104951
  H      -0.897187      0.220743      2.412833
  H       0.075274      2.244866      0.871595
  H      -1.143187      2.438042     -0.079978
  O      -0.228311      2.717137      0.043846
41
Coordinates from ORCA-job /home/rudenko/2025/kie/for_orca/m-o2nc6h4chno2ch3_piperidine/orca/ts_opt/ts_opt E -1047.499097140420
  C      -2.843875      0.240786     -2.969984
  C      -1.578140      0.660908     -2.576861
  C      -0.522915     -0.245755     -2.457922
  C      -0.745805     -1.587211     -2.746923
  C      -2.015217     -1.986164     -3.137520
  C      -3.076218     -1.096680     -3.253439
  H      -3.650201      0.956952     -3.052690
  H      -1.405789      1.706373     -2.355115
  H       0.040129     -2.321847     -2.672680
  H      -4.050841     -1.446787     -3.556664
  N      -2.243558     -3.406119     -3.431925
  O      -3.376753     -3.759330     -3.729567
  O      -1.291499     -4.173298     -3.365547
  C       0.825359      0.264185     -2.016057
  C       1.653741     -0.693956     -1.172249
  H       1.095008     -0.920424     -0.265083
  H       2.597501     -0.227783     -0.890954
  H       1.862878     -1.622820     -1.699530
  N       1.657957      0.625791     -3.253462
  O       1.800545     -0.221176     -4.118402
  O       2.153930      1.739265     -3.290416
  H       0.701760      1.212139     -1.498017
  C      -0.311807      0.440802      4.405799
  C       0.942632     -0.332094      4.623398
  C       2.144237      0.339282      3.937238
  C       1.794981      0.751137      2.507134
  N       0.616365      1.628056      2.435472
  C      -0.571489      0.992480      3.047476
  H      -1.113405      0.410144      5.133409
  H       1.135811     -0.477379      5.688460
  H       0.827302     -1.342511      4.192666
  H       3.003662     -0.336130      3.931326
  H       2.434674      1.231899      4.501054
  H       2.634542      1.267303      2.038776
  H       1.581653     -0.136983      1.905615
  H       0.822535      2.479242      2.953265
  H      -1.384904      1.719767      3.059191
  H      -0.880776      0.188335      2.359122
  H       0.081926      2.255149      0.853388
  H      -1.132228      2.480926     -0.096274
  O      -0.213711      2.743524      0.034494
41
Coordinates from ORCA-job /home/rudenko/2025/kie/for_orca/m-o2nc6h4chno2ch3_piperidine/orca/ts_opt/ts_opt E -1047.499100052431
  C      -2.839893      0.246800     -2.967523
  C      -1.573127      0.668336     -2.578983
  C      -0.519794     -0.239559     -2.451734
  C      -0.745318     -1.582907     -2.727887
  C      -2.015798     -1.983230     -3.113882
  C      -3.074983     -1.092785     -3.238188
  H      -3.644914      0.963904     -3.057178
  H      -1.398431      1.715112     -2.367085
  H       0.039462     -2.317929     -2.646835
  H      -4.050416     -1.444062     -3.537965
  N      -2.246959     -3.405081     -3.395793
  O      -3.381747     -3.759329     -3.686412
  O      -1.295816     -4.173276     -3.325886
  C       0.830087      0.270890     -2.015070
  C       1.657963     -0.684345     -1.168351
  H       1.094606     -0.916526     -0.265516
  H       2.597264     -0.213776     -0.880036
  H       1.875121     -1.610778     -1.696663
  N       1.658895      0.623828     -3.257862
  O       1.810539     -0.234528     -4.109841
  O       2.141835      1.742212     -3.312280
  H       0.708934      1.222438     -1.502640
  C      -0.321150      0.418711      4.384081
  C       0.937134     -0.346211      4.607571
  C       2.139133      0.337529      3.934688
  C       1.798020      0.752883      2.503742
  N       0.614713      1.623839      2.427286
  C      -0.573727      0.978640      3.027467
  H      -1.130494      0.370644      5.101578
  H       1.122660     -0.496313      5.673344
  H       0.832558     -1.354884      4.170473
  H       3.003827     -0.330799      3.933073
  H       2.417527      1.229845      4.504490
  H       2.638481      1.275247      2.042825
  H       1.593205     -0.134751      1.897760
  H       0.812297      2.474042      2.950249
  H      -1.390714      1.701643      3.038242
  H      -0.874689      0.177675      2.332055
  H       0.085977      2.262557      0.845564
  H      -1.126413      2.504806     -0.101662
  O      -0.205854      2.759486      0.030783
41
Coordinates from ORCA-job /home/rudenko/2025/kie/for_orca/m-o2nc6h4chno2ch3_piperidine/orca/ts_opt/ts_opt E -1047.499103585001
  C      -2.836810      0.251014     -2.966188
  C      -1.569777      0.672743     -2.579361
  C      -0.517539     -0.235648     -2.447629
  C      -0.744632     -1.580430     -2.716011
  C      -2.015582     -1.981133     -3.099860
  C      -3.073556     -1.089885     -3.229421
  H      -3.641029      0.968000     -3.059286
  H      -1.393569      1.720737     -2.373438
  H       0.039543     -2.315616     -2.630850
  H      -4.049202     -1.441456     -3.527714
  N      -2.248242     -3.404264     -3.374663
  O      -3.384074     -3.759427     -3.660227
  O      -1.296942     -4.172066     -3.304857
  C       0.833449      0.274613     -2.013871
  C       1.661288     -0.679698     -1.166363
  H       1.093406     -0.920094     -0.268555
  H       2.595951     -0.205158     -0.869496
  H       1.887243     -1.602204     -1.698046
  N       1.658797      0.623486     -3.260243
  O       1.824131     -0.244071     -4.100179
  O       2.123188      1.748730     -3.330849
  H       0.713129      1.227303     -1.504389
  C      -0.326276      0.408317      4.372716
  C       0.933562     -0.353686      4.597998
  C       2.135954      0.335562      3.931358
  C       1.798488      0.752698      2.500209
  N       0.613551      1.620479      2.421741
  C      -0.575656      0.972575      3.017498
  H      -1.140414      0.350647      5.084913
  H       1.115679     -0.506548      5.663926
  H       0.833176     -1.361569      4.157423
  H       3.003162     -0.329923      3.931280
  H       2.409221      1.227924      4.504295
  H       2.638064      1.278010      2.042800
  H       1.598173     -0.133849      1.892329
  H       0.807655      2.470320      2.946223
  H      -1.393105      1.695866      3.029356
  H      -0.875633      0.173454      2.318889
  H       0.088968      2.263597      0.841812
  H      -1.122907      2.516009     -0.103002
  O      -0.200832      2.764638      0.029735
41
Coordinates from ORCA-job /home/rudenko/2025/kie/for_orca/m-o2nc6h4chno2ch3_piperidine/orca/ts_opt/ts_opt E -1047.499108536562
  C      -2.835513      0.250596     -2.970385
  C      -1.569358      0.674651     -2.582028
  C      -0.517441     -0.233471     -2.445068
  C      -0.743439     -1.578612     -2.710547
  C      -2.013382     -1.980744     -3.096605
  C      -3.071126     -1.090588     -3.231228
  H      -3.639770      0.968048     -3.068919
  H      -1.394064      1.722461     -2.377412
  H       0.041000     -2.313007     -2.620995
  H      -4.045877     -1.443211     -3.531643
  N      -2.245247     -3.404507     -3.368773
  O      -3.381429     -3.761087     -3.651284
  O      -1.293237     -4.171740     -3.299487
  C       0.833263      0.277055     -2.009783
  C       1.659004     -0.677184     -1.160907
  H       1.084512     -0.927028     -0.269936
  H       2.587801     -0.198681     -0.852544
  H       1.895182     -1.594998     -1.696329
  N       1.656646      0.623508     -3.258361
  O       1.844814     -0.254608     -4.082323
  O       2.093940      1.758394     -3.348050
  H       0.712747      1.231082     -1.502172
  C      -0.324756      0.409084      4.371810
  C       0.933503     -0.356632      4.593814
  C       2.136131      0.330276      3.925729
  C       1.797006      0.747667      2.495126
  N       0.614686      1.620845      2.419267
  C      -0.575338      0.977764      3.018157
  H      -1.139340      0.344681      5.081522
  H       1.117280     -0.511769      5.659288
  H       0.829555     -1.363487      4.152014
  H       3.002073     -0.336273      3.924620
  H       2.411306      1.222064      4.497758
  H       2.638996      1.269049      2.034580
  H       1.590495     -0.139611      1.888603
  H       0.813684      2.470960      2.942176
  H      -1.389050      1.704194      3.033630
  H      -0.881372      0.181699      2.319324
  H       0.090598      2.264259      0.843165
  H      -1.123832      2.521364     -0.097459
  O      -0.200651      2.767535      0.031650
41
Coordinates from ORCA-job /home/rudenko/2025/kie/for_orca/m-o2nc6h4chno2ch3_piperidine/orca/ts_opt/ts_opt E -1047.499081793894
  C      -2.829648      0.254482     -2.978725
  C      -1.566995      0.675452     -2.580151
  C      -0.516281     -0.233219     -2.437547
  C      -0.740420     -1.579001     -2.703238
  C      -2.008441     -1.981038     -3.095150
  C      -3.064727     -1.088719     -3.238115
  H      -3.632829      0.968972     -3.079099
  H      -1.391981      1.724927     -2.375979
  H       0.044087     -2.312704     -2.608819
  H      -4.037625     -1.441092     -3.544025
  N      -2.238598     -3.404171     -3.369692
  O      -3.376355     -3.763285     -3.642695
  O      -1.283258     -4.167869     -3.312886
  C       0.833978      0.277241     -1.997744
  C       1.657652     -0.678115     -1.148753
  H       1.067666     -0.957619     -0.276320
  H       2.570354     -0.189090     -0.808732
  H       1.923233     -1.579994     -1.697171
  N       1.650637      0.627336     -3.250060
  O       1.916810     -0.272166     -4.027623
  O       1.994344      1.787722     -3.395909
  H       0.708481      1.230326     -1.491478
  C      -0.318272      0.422334      4.377092
  C       0.934066     -0.355318      4.587075
  C       2.137217      0.318771      3.907431
  C       1.788818      0.735672      2.479089
  N       0.616176      1.618152      2.412049
  C      -0.575366      0.994893      3.027197
  H      -1.134965      0.353861      5.088212
  H       1.125248     -0.510845      5.650704
  H       0.815558     -1.361663      4.147608
  H       2.997932     -0.355874      3.899642
  H       2.425483      1.210268      4.475931
  H       2.626743      1.248312      2.010023
  H       1.570442     -0.148404      1.876869
  H       0.829841      2.468296      2.927064
  H      -1.375922      1.738001      3.055304
  H      -0.907676      0.203791      2.332681
  H       0.094350      2.251208      0.849271
  H      -1.128544      2.516602     -0.080911
  O      -0.201215      2.753569      0.037580
41
Coordinates from ORCA-job /home/rudenko/2025/kie/for_orca/m-o2nc6h4chno2ch3_piperidine/orca/ts_opt/ts_opt E -1047.499034933028
  C      -2.829879      0.241992     -2.987900
  C      -1.568868      0.671415     -2.586243
  C      -0.517187     -0.235331     -2.438330
  C      -0.736206     -1.580606     -2.709134
  C      -2.001396     -1.984633     -3.109744
  C      -3.059149     -1.098285     -3.254114
  H      -3.634216      0.960492     -3.099836
  H      -1.398368      1.718473     -2.376125
  H       0.049566     -2.312939     -2.610282
  H      -4.029289     -1.452295     -3.567941
  N      -2.229128     -3.409750     -3.385704
  O      -3.367954     -3.771852     -3.648545
  O      -1.270627     -4.170841     -3.341109
  C       0.830383      0.275494     -1.988856
  C       1.651429     -0.685058     -1.145103
  H       1.049447     -0.987508     -0.288879
  H       2.552189     -0.192613     -0.779278
  H       1.936247     -1.574538     -1.706253
  N       1.637566      0.643489     -3.243109
  O       1.983924     -0.258323     -3.987151
  O       1.878012      1.824569     -3.433559
  H       0.700068      1.226915     -1.477787
  C      -0.309169      0.449818      4.393839
  C       0.932134     -0.348771      4.594212
  C       2.139382      0.302973      3.900908
  C       1.784042      0.717296      2.473641
  N       0.626428      1.626654      2.414149
  C      -0.569631      1.030049      3.046233
  H      -1.123187      0.375655      5.101419
  H       1.131230     -0.506530      5.656911
  H       0.791771     -1.353901      4.158241
  H       2.988973     -0.383968      3.889847
  H       2.445716      1.192162      4.460655
  H       2.634303      1.208488      1.989765
  H       1.537122     -0.170077      1.880315
  H       0.864870      2.477671      2.919399
  H      -1.353225      1.786361      3.082056
  H      -0.926282      0.247506      2.357343
  H       0.104734      2.244478      0.862448
  H      -1.127825      2.513900     -0.060114
  O      -0.197953      2.741973      0.043710
41
Coordinates from ORCA-job /home/rudenko/2025/kie/for_orca/m-o2nc6h4chno2ch3_piperidine/orca/ts_opt/ts_opt E -1047.499027822025
  C      -2.824392      0.247177     -2.986830
  C      -1.564417      0.668823     -2.581632
  C      -0.513575     -0.239199     -2.435411
  C      -0.733666     -1.584707     -2.706571
  C      -2.000589     -1.988476     -3.101869
  C      -3.057160     -1.096881     -3.247771
  H      -3.626853      0.961257     -3.091816
  H      -1.391388      1.717999     -2.373980
  H       0.051095     -2.318013     -2.609427
  H      -4.028410     -1.450338     -3.558304
  N      -2.229629     -3.411336     -3.378627
  O      -3.371506     -3.774764     -3.627524
  O      -1.269892     -4.171470     -3.345714
  C       0.834735      0.272856     -1.987772
  C       1.662631     -0.689436     -1.153456
  H       1.062458     -1.004024     -0.298960
  H       2.560928     -0.194498     -0.782656
  H       1.953956     -1.570624     -1.722701
  N       1.631597      0.658622     -3.243726
  O       2.029758     -0.235814     -3.969613
  O       1.810687      1.845152     -3.455271
  H       0.698905      1.219360     -1.470126
  C      -0.312829      0.457294      4.393064
  C       0.923611     -0.348354      4.589845
  C       2.133511      0.295461      3.894183
  C       1.778379      0.713960      2.468367
  N       0.627511      1.625313      2.412304
  C      -0.571276      1.039057      3.047564
  H      -1.131510      0.388444      5.102539
  H       1.122810     -0.505618      5.651657
  H       0.776088     -1.352794      4.155447
  H       2.978854     -0.397699      3.879745
  H       2.447518      1.182260      4.455578
  H       2.622451      1.203874      1.986635
  H       1.531057     -0.167043      1.872725
  H       0.871154      2.473084      2.917005
  H      -1.347311      1.806957      3.088464
  H      -0.940844      0.259742      2.359259
  H       0.113606      2.233885      0.866916
  H      -1.121422      2.506102     -0.054438
  O      -0.186629      2.724411      0.042900
41
Coordinates from ORCA-job /home/rudenko/2025/kie/for_orca/m-o2nc6h4chno2ch3_piperidine/orca/ts_opt/ts_opt E -1047.498967963391
  C      -2.818539      0.236932     -2.986754
  C      -1.558072      0.669045     -2.586895
  C      -0.506694     -0.236400     -2.429554
  C      -0.724800     -1.583804     -2.691011
  C      -1.991524     -1.990881     -3.084969
  C      -3.048693     -1.105887     -3.237530
  H      -3.622951      0.953617     -3.106288
  H      -1.386758      1.718309     -2.386823
  H       0.059891     -2.316448     -2.584578
  H      -4.019305     -1.463591     -3.546384
  N      -2.222313     -3.418918     -3.343208
  O      -3.367305     -3.786581     -3.568322
  O      -1.259933     -4.175620     -3.322331
  C       0.840053      0.278806     -1.978756
  C       1.672927     -0.687311     -1.159318
  H       1.071922     -1.017766     -0.312565
  H       2.565676     -0.191464     -0.777809
  H       1.972138     -1.559126     -1.740649
  N       1.616348      0.683784     -3.242846
  O       2.108586     -0.196983     -3.927207
  O       1.672678      1.873820     -3.506770
  H       0.697330      1.221503     -1.453337
  C      -0.321853      0.462256      4.383396
  C       0.903927     -0.362805      4.572456
  C       2.122994      0.266297      3.878717
  C       1.770652      0.701784      2.457069
  N       0.634358      1.639841      2.411567
  C      -0.573304      1.069317      3.045628
  H      -1.143191      0.381422      5.082637
  H       1.102683     -0.531402      5.633354
  H       0.740263     -1.362227      4.132126
  H       2.956419     -0.441563      3.857335
  H       2.454407      1.143452      4.445064
  H       2.630321      1.178948      1.974873
  H       1.501908     -0.174007      1.855265
  H       0.898188      2.481407      2.921226
  H      -1.334580      1.847400      3.096895
  H      -0.958975      0.306825      2.349760
  H       0.131361      2.241834      0.875605
  H      -1.102479      2.523944     -0.041926
  O      -0.163760      2.722243      0.042856
41
Coordinates from ORCA-job /home/rudenko/2025/kie/for_orca/m-o2nc6h4chno2ch3_piperidine/orca/ts_opt/ts_opt E -1047.499083856910
  C      -2.821423      0.242770     -2.989527
  C      -1.561137      0.670222     -2.587724
  C      -0.510332     -0.236512     -2.433181
  C      -0.729940     -1.583488     -2.695981
  C      -1.996670     -1.989427     -3.090208
  C      -3.053296     -1.101218     -3.242006
  H      -3.624634      0.958228     -3.103747
  H      -1.388834      1.719569     -2.386118
  H       0.054529     -2.316230     -2.592399
  H      -4.024224     -1.457109     -3.550992
  N      -2.226763     -3.415317     -3.353843
  O      -3.370040     -3.781128     -3.592093
  O      -1.266214     -4.174438     -3.321877
  C       0.837195      0.277925     -1.984521
  C       1.668115     -0.684783     -1.156576
  H       1.071096     -1.000425     -0.300714
  H       2.567294     -0.190067     -0.788357
  H       1.957320     -1.565369     -1.728160
  N       1.625800      0.669197     -3.244482
  O       2.059112     -0.222354     -3.953366
  O       1.759922      1.858905     -3.475795
  H       0.698600      1.222898     -1.463785
  C      -0.318266      0.454826      4.386361
  C       0.914119     -0.359344      4.579093
  C       2.128032      0.280220      3.886440
  C       1.774942      0.709635      2.463286
  N       0.629847      1.632480      2.413330
  C      -0.573048      1.049727      3.044905
  H      -1.137377      0.380539      5.091692
  H       1.113000     -0.523546      5.640436
  H       0.760162     -1.361153      4.139933
  H       2.968155     -0.418753      3.867859
  H       2.448899      1.161217      4.452084
  H       2.626330      1.195674      1.983224
  H       1.518929     -0.168032      1.862613
  H       0.881056      2.476104      2.923377
  H      -1.344320      1.820339      3.090349
  H      -0.946569      0.278229      2.351171
  H       0.119892      2.242408      0.869432
  H      -1.112777      2.518753     -0.051627
  O      -0.176480      2.728827      0.041497
41
Coordinates from ORCA-job /home/rudenko/2025/kie/for_orca/m-o2nc6h4chno2ch3_piperidine/orca/ts_opt/ts_opt E -1047.499129400916
  C      -2.828503      0.243226     -2.980095
  C      -1.565720      0.669627     -2.583328
  C      -0.513784     -0.237319     -2.440404
  C      -0.735064     -1.582723     -2.709936
  C      -2.002853     -1.986212     -3.102831
  C      -3.060694     -1.098035     -3.242638
  H      -3.632634      0.960025     -3.085640
  H      -1.392849      1.718092     -2.376340
  H       0.050001     -2.316678     -2.614542
  H      -4.033176     -1.452141     -3.549462
  N      -2.233362     -3.411243     -3.375221
  O      -3.373391     -3.772209     -3.634126
  O      -1.275663     -4.172624     -3.332358
  C       0.834583      0.274042     -1.995074
  C       1.662955     -0.688100     -1.160204
  H       1.073044     -0.981417     -0.292879
  H       2.572875     -0.200322     -0.811617
  H       1.933219     -1.582152     -1.720895
  N       1.637024      0.652184     -3.249238
  O       1.971362     -0.240750     -4.009399
  O       1.888861      1.833306     -3.421602
  H       0.702774      1.221868     -1.477891
  C      -0.318096      0.444980      4.388788
  C       0.923603     -0.350407      4.593418
  C       2.133568      0.302966      3.905217
  C       1.783245      0.723109      2.478411
  N       0.624598      1.629202      2.417883
  C      -0.573398      1.026592      3.041269
  H      -1.133641      0.376535      5.097279
  H       1.118031     -0.507461      5.656442
  H       0.787459     -1.355170      4.157455
  H       2.982995     -0.386484      3.893507
  H       2.440701      1.190495      4.470064
  H       2.632544      1.218856      2.001507
  H       1.542317     -0.160881      1.879427
  H       0.858327      2.477423      2.929542
  H      -1.360328      1.781033      3.074521
  H      -0.923432      0.243632      2.348189
  H       0.108303      2.246386      0.861346
  H      -1.118207      2.511767     -0.068085
  O      -0.187594      2.736980      0.039538
41
Coordinates from ORCA-job /home/rudenko/2025/kie/for_orca/m-o2nc6h4chno2ch3_piperidine/orca/ts_opt/ts_opt E -1047.499155495984
  C      -2.830662      0.243131     -2.986254
  C      -1.568545      0.666875     -2.586859
  C      -0.516368     -0.240402     -2.445497
  C      -0.737570     -1.585265     -2.717575
  C      -2.005130     -1.988562     -3.110899
  C      -3.062972     -1.098786     -3.250533
  H      -3.634595      0.959160     -3.088984
  H      -1.396192      1.714374     -2.377135
  H       0.047376     -2.318307     -2.624976
  H      -4.035047     -1.451863     -3.558391
  N      -2.234411     -3.411720     -3.387241
  O      -3.373833     -3.772743     -3.650825
  O      -1.277674     -4.175013     -3.338267
  C       0.831703      0.271810     -1.999983
  C       1.661566     -0.690164     -1.166136
  H       1.077494     -0.974812     -0.290967
  H       2.577514     -0.204899     -0.828788
  H       1.922378     -1.588388     -1.723157
  N       1.638087      0.653069     -3.250310
  O       1.947486     -0.233670     -4.026963
  O       1.923697      1.828760     -3.399827
  H       0.700487      1.217780     -1.480346
  C      -0.314073      0.451895      4.398556
  C       0.927613     -0.346271      4.602368
  C       2.135991      0.306514      3.911967
  C       1.784682      0.724813      2.484724
  N       0.625393      1.627721      2.423318
  C      -0.571182      1.025002      3.048715
  H      -1.126838      0.395199      5.113256
  H       1.124535     -0.502023      5.665497
  H       0.788933     -1.352603      4.166978
  H       2.984961     -0.380328      3.901045
  H       2.441463      1.193615      4.474762
  H       2.630188      1.222043      2.007891
  H       1.546540     -0.158754      1.886548
  H       0.857397      2.476313      2.933538
  H      -1.360011      1.778388      3.078570
  H      -0.918557      0.237793      2.359431
  H       0.104051      2.244689      0.862282
  H      -1.122666      2.501727     -0.069423
  O      -0.193211      2.733903      0.039893
41
Coordinates from ORCA-job /home/rudenko/2025/kie/for_orca/m-o2nc6h4chno2ch3_piperidine/orca/ts_opt/ts_opt E -1047.499127004093
  C      -2.836203      0.237026     -2.984609
  C      -1.572853      0.662496     -2.588681
  C      -0.518079     -0.242321     -2.456282
  C      -0.738725     -1.586711     -2.733144
  C      -2.006852     -1.990349     -3.124955
  C      -3.066771     -1.102893     -3.255887
  H      -3.642295      0.952023     -3.080281
  H      -1.401495      1.711222     -2.376464
  H       0.047452     -2.321228     -2.645222
  H      -4.039922     -1.457137     -3.561074
  N      -2.235452     -3.414810     -3.404086
  O      -3.370228     -3.771907     -3.688456
  O      -1.280593     -4.177729     -3.343195
  C       0.828699      0.270749     -2.011926
  C       1.663402     -0.692805     -1.182454
  H       1.095876     -0.952575     -0.290296
  H       2.594668     -0.218222     -0.874635
  H       1.896552     -1.605007     -1.730763
  N       1.642066      0.652608     -3.256572
  O       1.862805     -0.213621     -4.085934
  O       2.032516      1.806002     -3.342536
  H       0.699845      1.214458     -1.486622
  C      -0.312639      0.455127      4.412623
  C       0.928764     -0.335876      4.620584
  C       2.137894      0.312657      3.924328
  C       1.784176      0.728865      2.497097
  N       0.622330      1.630596      2.435488
  C      -0.572662      1.020698      3.058963
  H      -1.114614      0.419333      5.137767
  H       1.125424     -0.484796      5.683532
  H       0.794345     -1.341773      4.192741
  H       2.985820     -0.381968      3.911482
  H       2.451753      1.202277      4.485549
  H       2.632108      1.226266      2.018724
  H       1.545534     -0.157209      1.899504
  H       0.852046      2.479682      2.947922
  H      -1.368015      1.767541      3.082376
  H      -0.910529      0.227294      2.370770
  H       0.092000      2.251991      0.863175
  H      -1.125617      2.485009     -0.079796
  O      -0.202530      2.735019      0.041244
41
Coordinates from ORCA-job /home/rudenko/2025/kie/for_orca/m-o2nc6h4chno2ch3_piperidine/orca/ts_opt/ts_opt E -1047.499076600021
  C      -2.845395      0.230505     -2.999725
  C      -1.584577      0.654111     -2.594845
  C      -0.527323     -0.250231     -2.467940
  C      -0.743581     -1.591377     -2.759002
  C      -2.008156     -1.993563     -3.160482
  C      -3.070770     -1.107204     -3.286500
  H      -3.653806      0.943993     -3.088560
  H      -1.418245      1.698093     -2.368457
  H       0.044321     -2.321495     -2.679968
  H      -4.041289     -1.459942     -3.599044
  N      -2.228354     -3.413234     -3.457208
  O      -3.357781     -3.771573     -3.765517
  O      -1.274770     -4.178178     -3.377760
  C       0.816936      0.263825     -2.018058
  C       1.652285     -0.699336     -1.188538
  H       1.098336     -0.939171     -0.281887
  H       2.593861     -0.231156     -0.905581
  H       1.865137     -1.620036     -1.725432
  N       1.645842      0.642956     -3.252064
  O       1.789239     -0.197589     -4.121961
  O       2.139315      1.757463     -3.282145
  H       0.688792      1.204086     -1.488233
  C      -0.293403      0.486778      4.450236
  C       0.945971     -0.321551      4.645565
  C       2.148929      0.318761      3.933725
  C       1.782501      0.730945      2.507700
  N       0.622588      1.633399      2.452122
  C      -0.567217      1.029697      3.091760
  H      -1.078944      0.486689      5.196586
  H       1.158904     -0.469469      5.707505
  H       0.793524     -1.332234      4.218528
  H       2.991856     -0.371905      3.917133
  H       2.466461      1.205722      4.486092
  H       2.622793      1.226203      2.021346
  H       1.539233     -0.155144      1.915166
  H       0.857316      2.484208      2.958118
  H      -1.364732      1.773584      3.110282
  H      -0.904523      0.225520      2.418143
  H       0.071919      2.250898      0.870161
  H      -1.144141      2.450164     -0.079234
  O      -0.229053      2.726789      0.047974
41
Coordinates from ORCA-job /home/rudenko/2025/kie/for_orca/m-o2nc6h4chno2ch3_piperidine/orca/ts_opt/ts_opt E -1047.499170332638
  C      -2.837638      0.236049     -2.994495
  C      -1.576349      0.660319     -2.592148
  C      -0.521522     -0.245136     -2.457140
  C      -0.739997     -1.588400     -2.737925
  C      -2.005934     -1.991554     -3.135497
  C      -3.066211     -1.103885     -3.269223
  H      -3.643964      0.950585     -3.091018
  H      -1.407167      1.706432     -2.374862
  H       0.046448     -2.320132     -2.651039
  H      -4.037432     -1.457290     -3.579383
  N      -2.230598     -3.413486     -3.420571
  O      -3.365075     -3.773515     -3.706410
  O      -1.275034     -4.177023     -3.356048
  C       0.824308      0.268374     -2.008855
  C       1.657619     -0.694510     -1.178512
  H       1.089117     -0.956800     -0.286912
  H       2.587044     -0.217784     -0.869038
  H       1.893725     -1.604201     -1.726228
  N       1.641131      0.649910     -3.251245
  O       1.869641     -0.218688     -4.074591
  O       2.028448      1.802690     -3.340291
  H       0.693986      1.210940     -1.483056
  C      -0.303589      0.470439      4.425676
  C       0.935851     -0.334063      4.624105
  C       2.142135      0.310058      3.921320
  C       1.782275      0.726426      2.495296
  N       0.624160      1.631480      2.438552
  C      -0.569530      1.029855      3.071893
  H      -1.102072      0.443136      5.157496
  H       1.141429     -0.485739      5.686419
  H       0.788590     -1.342230      4.193689
  H       2.986669     -0.381198      3.906035
  H       2.456935      1.196545      4.478841
  H       2.625957      1.221265      2.012829
  H       1.539077     -0.157977      1.899821
  H       0.859728      2.480583      2.946939
  H      -1.361485      1.779855      3.097110
  H      -0.913943      0.234974      2.390226
  H       0.087757      2.248631      0.867155
  H      -1.133529      2.475278     -0.073404
  O      -0.210963      2.729789      0.044491
41
Coordinates from ORCA-job /home/rudenko/2025/kie/for_orca/m-o2nc6h4chno2ch3_piperidine/orca/ts_opt/ts_opt E -1047.499187661226
  C      -2.838046      0.233933     -2.996803
  C      -1.577685      0.658857     -2.592036
  C      -0.522049     -0.245118     -2.458226
  C      -0.738884     -1.588459     -2.741484
  C      -2.004130     -1.992712     -3.141033
  C      -3.065027     -1.105761     -3.274375
  H      -3.645001      0.947646     -3.092777
  H      -1.409527      1.705633     -2.373297
  H       0.048384     -2.320288     -2.654207
  H      -4.035655     -1.459711     -3.586190
  N      -2.227236     -3.414721     -3.428903
  O      -3.360844     -3.774831     -3.716715
  O      -1.270606     -4.176471     -3.367054
  C       0.823025      0.268242     -2.007509
  C       1.656259     -0.695464     -1.177920
  H       1.086830     -0.960186     -0.287737
  H       2.585002     -0.218373     -0.866051
  H       1.894026     -1.604294     -1.727730
  N       1.639529      0.650918     -3.249933
  O       1.877293     -0.219636     -4.069223
  O       2.016496      1.807171     -3.343561
  H       0.691260      1.210043     -1.480484
  C      -0.299897      0.477115      4.432895
  C       0.936255     -0.329189      4.628478
  C       2.143049      0.306577      3.918124
  C       1.778615      0.721708      2.493215
  N       0.624916      1.632947      2.440305
  C      -0.569139      1.037881      3.079706
  H      -1.094991      0.452260      5.167267
  H       1.144603     -0.478172      5.689923
  H       0.784791     -1.336210      4.203024
  H       2.984105     -0.392372      3.899401
  H       2.467813      1.193606      4.472829
  H       2.623921      1.210732      2.005330
  H       1.527278     -0.163122      1.900834
  H       0.867173      2.481656      2.946311
  H      -1.357036      1.792639      3.108206
  H      -0.921600      0.244280      2.399642
  H       0.086619      2.246664      0.870659
  H      -1.136126      2.469278     -0.069510
  O      -0.213762      2.725306      0.046607
41
Coordinates from ORCA-job /home/rudenko/2025/kie/for_orca/m-o2nc6h4chno2ch3_piperidine/orca/ts_opt/ts_opt E -1047.499166677379
  C      -2.839785      0.219250     -2.996375
  C      -1.583675      0.649051     -2.582630
  C      -0.523970     -0.253320     -2.450674
  C      -0.730458     -1.593929     -2.751153
  C      -1.990708     -1.999498     -3.162102
  C      -3.056845     -1.118642     -3.289223
  H      -3.650512      0.930468     -3.090204
  H      -1.422842      1.694023     -2.352727
  H       0.060778     -2.320370     -2.669438
  H      -4.023869     -1.475109     -3.609228
  N      -2.203441     -3.419903     -3.466771
  O      -3.336520     -3.787071     -3.749747
  O      -1.239742     -4.174720     -3.422115
  C       0.818764      0.264458     -1.993186
  C       1.657882     -0.700859     -1.172814
  H       1.083948     -0.992839     -0.293763
  H       2.574883     -0.214504     -0.841602
  H       1.916837     -1.593892     -1.736769
  N       1.623058      0.663155     -3.238755
  O       1.948630     -0.218442     -4.013582
  O       1.886691      1.843799     -3.389275
  H       0.678345      1.202261     -1.460434
  C      -0.284074      0.526737      4.460781
  C       0.931487     -0.321961      4.631834
  C       2.140803      0.273596      3.893537
  C       1.757147      0.699682      2.476176
  N       0.633853      1.647497      2.445631
  C      -0.563859      1.097527      3.114630
  H      -1.071260      0.516599      5.206595
  H       1.159494     -0.473499      5.690397
  H       0.734456     -1.329867      4.213721
  H       2.956151     -0.446643      3.856992
  H       2.503620      1.146749      4.438977
  H       2.603535      1.161133      1.969555
  H       1.465621     -0.175979      1.891388
  H       0.915341      2.489355      2.941518
  H      -1.321338      1.879983      3.161832
  H      -0.962534      0.318619      2.445069
  H       0.098073      2.236900      0.893026
  H      -1.134625      2.450259     -0.050550
  O      -0.209340      2.699944      0.051459
41
Coordinates from ORCA-job /home/rudenko/2025/kie/for_orca/m-o2nc6h4chno2ch3_piperidine/orca/ts_opt/ts_opt E -1047.499201849289
  C      -2.830411      0.217322     -2.980183
  C      -1.573641      0.651823     -2.574300
  C      -0.513217     -0.246768     -2.437817
  C      -0.719441     -1.591768     -2.723473
  C      -1.981822     -2.004305     -3.123758
  C      -3.048340     -1.124626     -3.256611
  H      -3.641383      0.926464     -3.079138
  H      -1.411770      1.700134     -2.357697
  H       0.072890     -2.317687     -2.635009
  H      -4.016248     -1.484864     -3.569537
  N      -2.195716     -3.427713     -3.414406
  O      -3.331914     -3.798989     -3.676833
  O      -1.229687     -4.179507     -3.380944
  C       0.831975      0.274828     -1.990062
  C       1.682096     -0.690555     -1.182802
  H       1.106441     -1.009681     -0.313876
  H       2.589007     -0.195130     -0.834450
  H       1.960377     -1.569124     -1.763247
  N       1.610414      0.686667     -3.249044
  O       2.018904     -0.196305     -3.983927
  O       1.761490      1.878841     -3.456401
  H       0.689651      1.211613     -1.453615
  C      -0.301615      0.520973      4.441951
  C       0.902750     -0.340551      4.604287
  C       2.120309      0.241810      3.868777
  C       1.740393      0.687603      2.457520
  N       0.634284      1.656245      2.440650
  C      -0.571945      1.121214      3.106496
  H      -1.097001      0.490620      5.177207
  H       1.127645     -0.502565      5.661090
  H       0.694881     -1.340367      4.181427
  H       2.923517     -0.496701      3.820995
  H       2.503295      1.104113      4.422852
  H       2.595430      1.137219      1.950734
  H       1.429331     -0.178162      1.866584
  H       0.932137      2.487542      2.944167
  H      -1.311607      1.920058      3.170522
  H      -0.992380      0.362981      2.426100
  H       0.121395      2.243833      0.899209
  H      -1.106175      2.473555     -0.051054
  O      -0.174299      2.699910      0.047616
41
Coordinates from ORCA-job /home/rudenko/2025/kie/for_orca/m-o2nc6h4chno2ch3_piperidine/orca/ts_opt/ts_opt E -1047.499247336391
  C      -2.829755      0.225884     -2.981880
  C      -1.570336      0.657770     -2.581681
  C      -0.512499     -0.242724     -2.442627
  C      -0.724895     -1.588753     -2.718002
  C      -1.989952     -1.999749     -3.112153
  C      -3.053458     -1.116849     -3.249009
  H      -3.638526      0.936779     -3.082692
  H      -1.404249      1.706950     -2.371822
  H       0.064908     -2.317518     -2.626337
  H      -4.023553     -1.475785     -3.556951
  N      -2.209880     -3.424220     -3.391932
  O      -3.346266     -3.791378     -3.658840
  O      -1.248090     -4.180461     -3.345519
  C       0.833988      0.276664     -1.999089
  C       1.680666     -0.686951     -1.185657
  H       1.108878     -0.986761     -0.307656
  H       2.595823     -0.196769     -0.852414
  H       1.944039     -1.576870     -1.755693
  N       1.621455      0.677899     -3.255629
  O       1.968918     -0.205329     -4.021191
  O       1.851106      1.863980     -3.423204
  H       0.696865      1.215803     -1.466483
  C      -0.310269      0.491919      4.426852
  C       0.907371     -0.346490      4.602161
  C       2.123102      0.261203      3.883540
  C       1.753352      0.701407      2.467984
  N       0.627777      1.647929      2.438775
  C      -0.576317      1.085119      3.087090
  H      -1.108895      0.455431      5.157411
  H       1.122149     -0.508070      5.660614
  H       0.725060     -1.346840      4.173154
  H       2.942283     -0.462610      3.845952
  H       2.481991      1.131495      4.443638
  H       2.606784      1.168870      1.973041
  H       1.466970     -0.169709      1.871356
  H       0.902193      2.483849      2.948895
  H      -1.335701      1.867041      3.139886
  H      -0.968575      0.316609      2.400441
  H       0.112541      2.250628      0.885821
  H      -1.108352      2.484511     -0.064163
  O      -0.178651      2.716097      0.044012
41
Coordinates from ORCA-job /home/rudenko/2025/kie/for_orca/m-o2nc6h4chno2ch3_piperidine/orca/ts_opt/ts_opt E -1047.499257227875
  C      -2.830257      0.226898     -2.981434
  C      -1.569165      0.658202     -2.586017
  C      -0.511777     -0.243435     -2.447040
  C      -0.726725     -1.589469     -2.718353
  C      -1.993303     -1.999512     -3.107945
  C      -3.056225     -1.116009     -3.244385
  H      -3.638466      0.938865     -3.082312
  H      -1.401607      1.707418     -2.378962
  H       0.062179     -2.318895     -2.627400
  H      -4.027574     -1.474697     -3.548642
  N      -2.215911     -3.424677     -3.382031
  O      -3.352968     -3.790899     -3.648162
  O      -1.255693     -4.182775     -3.330767
  C       0.835727      0.276311     -2.007722
  C       1.686256     -0.687956     -1.198299
  H       1.121260     -0.981435     -0.313806
  H       2.606390     -0.200687     -0.875469
  H       1.940838     -1.580921     -1.766723
  N       1.622270      0.682814     -3.262848
  O       1.943792     -0.192514     -4.047870
  O       1.879106      1.866015     -3.408691
  H       0.700308      1.213377     -1.472461
  C      -0.315840      0.486152      4.424516
  C       0.904514     -0.348383      4.605985
  C       2.121371      0.266393      3.895356
  C       1.758331      0.705892      2.477551
  N       0.627539      1.645754      2.441729
  C      -0.577151      1.075321      3.082217
  H      -1.116491      0.452247      5.153428
  H       1.114515     -0.510818      5.665491
  H       0.728212     -1.349513      4.173748
  H       2.944479     -0.451693      3.863159
  H       2.471134      1.137891      4.457920
  H       2.611615      1.178969      1.988804
  H       1.481202     -0.165907      1.878154
  H       0.893938      2.482902      2.953879
  H      -1.342442      1.851562      3.128470
  H      -0.958291      0.303118      2.393714
  H       0.113667      2.250864      0.882595
  H      -1.103930      2.486260     -0.070808
  O      -0.174826      2.716970      0.041432
41
Coordinates from ORCA-job /home/rudenko/2025/kie/for_orca/m-o2nc6h4chno2ch3_piperidine/orca/ts_opt/ts_opt E -1047.499268090866
  C      -2.827421      0.229236     -2.982147
  C      -1.564888      0.661433     -2.592878
  C      -0.508350     -0.240131     -2.449019
  C      -0.726320     -1.588301     -2.707523
  C      -1.994666     -1.999924     -3.090184
  C      -3.056336     -1.115745     -3.232478
  H      -3.634779      0.941040     -3.086753
  H      -1.395402      1.712126     -2.394847
  H       0.061550     -2.318364     -2.611777
  H      -4.028948     -1.475529     -3.531176
  N      -2.220694     -3.427132     -3.350009
  O      -3.357974     -3.792558     -3.615609
  O      -1.262890     -4.187483     -3.288105
  C       0.839933      0.281714     -2.015991
  C       1.696465     -0.681239     -1.211090
  H       1.140677     -0.967013     -0.318431
  H       2.622023     -0.195540     -0.901940
  H       1.941177     -1.578679     -1.776903
  N       1.622652      0.688878     -3.273083
  O       1.914388     -0.181553     -4.074779
  O       1.912344      1.867089     -3.399544
  H       0.706759      1.218409     -1.478700
  C      -0.325238      0.471941      4.415309
  C       0.896553     -0.359372      4.599310
  C       2.115316      0.263606      3.899038
  C       1.759103      0.709229      2.481343
  N       0.624392      1.644658      2.443811
  C      -0.581507      1.064241      3.073242
  H      -1.127034      0.438253      5.142763
  H       1.101338     -0.527376      5.658792
  H       0.726359     -1.357917      4.160155
  H       2.941522     -0.451545      3.868487
  H       2.458501      1.133802      4.468024
  H       2.613683      1.188538      2.000542
  H       1.489106     -0.160520      1.875101
  H       0.884074      2.480240      2.962680
  H      -1.352221      1.835366      3.116661
  H      -0.952137      0.291973      2.379034
  H       0.113573      2.260086      0.878310
  H      -1.096883      2.496541     -0.078607
  O      -0.167799      2.727522      0.038971
41
Coordinates from ORCA-job /home/rudenko/2025/kie/for_orca/m-o2nc6h4chno2ch3_piperidine/orca/ts_opt/ts_opt E -1047.499277210747
  C      -2.829417      0.224896     -2.988361
  C      -1.567766      0.658429     -2.597697
  C      -0.509936     -0.242083     -2.453757
  C      -0.726054     -1.590004     -2.713128
  C      -1.993372     -2.002764     -3.097223
  C      -3.056152     -1.119881     -3.240202
  H      -3.637784      0.936079     -3.093310
  H      -1.400246      1.708913     -2.398270
  H       0.062701     -2.318959     -2.617560
  H      -4.028068     -1.480676     -3.539884
  N      -2.216838     -3.430203     -3.356996
  O      -3.352766     -3.797474     -3.626899
  O      -1.258343     -4.189254     -3.290171
  C       0.837665      0.281572     -2.020919
  C       1.699675     -0.682239     -1.222496
  H       1.152062     -0.965417     -0.323977
  H       2.628977     -0.197866     -0.923063
  H       1.937496     -1.580691     -1.788956
  N       1.618314      0.695636     -3.276666
  O       1.893198     -0.167796     -4.091514
  O       1.924308      1.871151     -3.388819
  H       0.703879      1.214415     -1.478741
  C      -0.322051      0.484571      4.428942
  C       0.894435     -0.355537      4.609335
  C       2.114683      0.258098      3.903175
  C       1.756121      0.704461      2.486176
  N       0.626883      1.646352      2.451215
  C      -0.580131      1.073448      3.085763
  H      -1.118194      0.464173      5.162821
  H       1.102704     -0.523788      5.668216
  H       0.715048     -1.353577      4.171842
  H       2.935699     -0.462613      3.870496
  H       2.466093      1.126509      4.469585
  H       2.611836      1.178273      2.002120
  H       1.479223     -0.164091      1.881770
  H       0.892982      2.481020      2.967657
  H      -1.347429      1.847935      3.128576
  H      -0.955371      0.300317      2.395046
  H       0.112396      2.259102      0.882642
  H      -1.096926      2.487609     -0.077765
  O      -0.169534      2.721954      0.040997
41
Coordinates from ORCA-job /home/rudenko/2025/kie/for_orca/m-o2nc6h4chno2ch3_piperidine/orca/ts_opt/ts_opt E -1047.499292805153
  C      -2.830574      0.214776     -2.994805
  C      -1.570828      0.653414     -2.603154
  C      -0.509884     -0.243251     -2.458420
  C      -0.721445     -1.592466     -2.716078
  C      -1.986704     -2.010200     -3.101724
  C      -3.052364     -1.131434     -3.246280
  H      -3.641491      0.922391     -3.099695
  H      -1.407565      1.705334     -2.404079
  H       0.069849     -2.318603     -2.619056
  H      -4.022787     -1.495820     -3.546412
  N      -2.204776     -3.438907     -3.359247
  O      -3.336567     -3.808452     -3.641823
  O      -1.245712     -4.195902     -3.280138
  C       0.836090      0.285848     -2.028188
  C       1.710932     -0.676794     -1.241718
  H       1.181734     -0.953273     -0.330681
  H       2.647054     -0.192868     -0.964410
  H       1.935163     -1.579137     -1.807579
  N       1.610709      0.708253     -3.284417
  O       1.848738     -0.144643     -4.122324
  O       1.955934      1.875197     -3.370934
  H       0.700385      1.214581     -1.476891
  C      -0.316603      0.508451      4.452556
  C       0.884851     -0.355580      4.617009
  C       2.107795      0.235815      3.896951
  C       1.740935      0.692321      2.485124
  N       0.628049      1.653605      2.464679
  C      -0.581291      1.098372      3.111028
  H      -1.096786      0.516389      5.203293
  H       1.103252     -0.530056      5.672737
  H       0.681032     -1.348452      4.179394
  H       2.914044     -0.500499      3.852992
  H       2.482855      1.095687      4.461037
  H       2.599546      1.152500      1.993384
  H       1.442123     -0.169472      1.880844
  H       0.913766      2.482570      2.980624
  H      -1.337750      1.882914      3.159647
  H      -0.972338      0.328846      2.424934
  H       0.107995      2.266972      0.892919
  H      -1.096157      2.472398     -0.076490
  O      -0.171212      2.719175      0.045389
41
Coordinates from ORCA-job /home/rudenko/2025/kie/for_orca/m-o2nc6h4chno2ch3_piperidine/orca/ts_opt/ts_opt E -1047.499290620422
  C      -2.837718      0.197753     -2.995359
  C      -1.580770      0.641871     -2.600830
  C      -0.513337     -0.248607     -2.464252
  C      -0.716497     -1.597051     -2.730762
  C      -1.978433     -2.020534     -3.119728
  C      -3.049929     -1.146911     -3.258887
  H      -3.653707      0.901651     -3.094870
  H      -1.425398      1.692591     -2.393361
  H       0.079733     -2.318165     -2.640032
  H      -4.017920     -1.514941     -3.561980
  N      -2.184798     -3.448426     -3.387881
  O      -3.311164     -3.824435     -3.685869
  O      -1.222088     -4.199663     -3.300337
  C       0.831734      0.286150     -2.038469
  C       1.723214     -0.677368     -1.270985
  H       1.215492     -0.954052     -0.347835
  H       2.665172     -0.192899     -1.015278
  H       1.935580     -1.578865     -1.841695
  N       1.597372      0.725200     -3.293740
  O       1.793659     -0.108573     -4.161551
  O       1.981280      1.881523     -3.349607
  H       0.695631      1.205966     -1.475113
  C      -0.307058      0.552005      4.490430
  C       0.872345     -0.344425      4.638746
  C       2.099629      0.211217      3.896751
  C       1.722816      0.674713      2.489695
  N       0.634399      1.663607      2.483035
  C      -0.578682      1.139300      3.149142
  H      -1.066517      0.596595      5.259983
  H       1.103181     -0.522324      5.691245
  H       0.634506     -1.332210      4.207067
  H       2.884231     -0.547991      3.841662
  H       2.508163      1.061407      4.452489
  H       2.585613      1.111594      1.983948
  H       1.393077     -0.180015      1.892391
  H       0.947096      2.486052      2.991837
  H      -1.317404      1.940250      3.202356
  H      -0.994157      0.373807      2.473345
  H       0.110060      2.266296      0.908807
  H      -1.089222      2.445631     -0.075729
  O      -0.169182      2.702275      0.051220
41
Coordinates from ORCA-job /home/rudenko/2025/kie/for_orca/m-o2nc6h4chno2ch3_piperidine/orca/ts_opt/ts_opt E -1047.499248653198
  C      -2.835767      0.178167     -2.978782
  C      -1.578917      0.635058     -2.596819
  C      -0.504494     -0.247141     -2.462713
  C      -0.701293     -1.598842     -2.718078
  C      -1.962268     -2.034060     -3.097787
  C      -3.040584     -1.170569     -3.233732
  H      -3.657358      0.874312     -3.074371
  H      -1.429716      1.690256     -2.398400
  H       0.100250     -2.314173     -2.627500
  H      -4.008206     -1.547884     -3.527901
  N      -2.160420     -3.465556     -3.356516
  O      -3.278832     -3.845000     -3.676412
  O      -1.197919     -4.213614     -3.245198
  C       0.841286      0.299875     -2.057527
  C       1.762523     -0.656331     -1.315514
  H       1.291455     -0.928160     -0.372501
  H       2.710477     -0.165350     -1.098876
  H       1.958102     -1.561381     -1.887068
  N       1.587695      0.752964     -3.319327
  O       1.701909     -0.049869     -4.231274
  O       2.051794      1.880699     -3.331606
  H       0.706356      1.214495     -1.480823
  C      -0.309512      0.583863      4.516872
  C       0.836199     -0.359672      4.631117
  C       2.068616      0.157674      3.870627
  C       1.681952      0.652344      2.476876
  N       0.630050      1.679346      2.502856
  C      -0.588402      1.187345      3.184459
  H      -1.037961      0.669441      5.312693
  H       1.081526     -0.559387      5.676298
  H       0.552092     -1.331563      4.191229
  H       2.821828     -0.629045      3.790912
  H       2.519803      0.984193      4.428047
  H       2.549934      1.063742      1.960111
  H       1.308787     -0.181997      1.874995
  H       0.979584      2.484440      3.017449
  H      -1.302071      2.009332      3.255106
  H      -1.036027      0.438201      2.510204
  H       0.110338      2.288762      0.924587
  H      -1.068627      2.430380     -0.088968
  O      -0.154180      2.704705      0.053256
41
Coordinates from ORCA-job /home/rudenko/2025/kie/for_orca/m-o2nc6h4chno2ch3_piperidine/orca/ts_opt/ts_opt E -1047.499304102128
  C      -2.834422      0.187591     -2.977716
  C      -1.576444      0.639084     -2.594681
  C      -0.504994     -0.246537     -2.459184
  C      -0.705961     -1.597780     -2.714397
  C      -1.968603     -2.028505     -3.093508
  C      -3.043710     -1.159821     -3.231840
  H      -3.653329      0.887875     -3.076078
  H      -1.423525      1.692590     -2.396379
  H       0.092957     -2.315930     -2.623347
  H      -4.012174     -1.533179     -3.527051
  N      -2.171601     -3.458939     -3.352526
  O      -3.294446     -3.837362     -3.659777
  O      -1.209325     -4.208867     -3.250608
  C       0.841699      0.296151     -2.050112
  C       1.752143     -0.661982     -1.297539
  H       1.264498     -0.939005     -0.363945
  H       2.696343     -0.171819     -1.061774
  H       1.957893     -1.564060     -1.870495
  N       1.593144      0.744162     -3.311088
  O       1.744239     -0.071581     -4.205311
  O       2.018731      1.886659     -3.341500
  H       0.707605      1.213989     -1.481040
  C      -0.314963      0.562484      4.496386
  C       0.845897     -0.360562      4.624113
  C       2.077561      0.176437      3.875789
  C       1.696818      0.662726      2.477485
  N       0.628741      1.673321      2.491463
  C      -0.588441      1.165369      3.162508
  H      -1.060027      0.625247      5.278841
  H       1.083047     -0.554404      5.672340
  H       0.583160     -1.338073      4.183805
  H       2.844821     -0.598648      3.804829
  H       2.509697      1.011643      4.436300
  H       2.563387      1.086717      1.967800
  H       1.342958     -0.178432      1.874382
  H       0.961514      2.484078      3.006834
  H      -1.312159      1.978764      3.228596
  H      -1.022430      0.412930      2.483555
  H       0.113611      2.282715      0.916313
  H      -1.070679      2.446595     -0.090057
  O      -0.153232      2.708361      0.048611
41
Coordinates from ORCA-job /home/rudenko/2025/kie/for_orca/m-o2nc6h4chno2ch3_piperidine/orca/ts_opt/ts_opt E -1047.499330352069
  C      -2.829590      0.197804     -2.964230
  C      -1.568143      0.647864     -2.590499
  C      -0.499701     -0.241137     -2.451748
  C      -0.706238     -1.592941     -2.697434
  C      -1.972282     -2.021479     -3.067883
  C      -3.045097     -1.151129     -3.206532
  H      -3.646270      0.899518     -3.064055
  H      -1.409842      1.702713     -2.401693
  H       0.090547     -2.313268     -2.604401
  H      -4.016371     -1.524084     -3.494177
  N      -2.182178     -3.453120     -3.316442
  O      -3.308496     -3.829044     -3.612771
  O      -1.221707     -4.205714     -3.217632
  C       0.849453      0.299156     -2.048288
  C       1.754917     -0.658680     -1.290016
  H       1.256975     -0.941258     -0.363492
  H       2.695036     -0.167067     -1.041195
  H       1.969473     -1.557725     -1.864546
  N       1.599724      0.735841     -3.314314
  O       1.763719     -0.091110     -4.195125
  O       2.009106      1.883748     -3.361937
  H       0.719065      1.222134     -1.486271
  C      -0.331672      0.528836      4.464846
  C       0.843476     -0.375281      4.602422
  C       2.075860      0.187265      3.874255
  C       1.705786      0.674750      2.473720
  N       0.622204      1.669228      2.480040
  C      -0.596058      1.139966      3.132860
  H      -1.094056      0.563611      5.232377
  H       1.069383     -0.571337      5.652679
  H       0.603319     -1.354877      4.153167
  H       2.857513     -0.573383      3.809712
  H       2.485085      1.026815      4.444775
  H       2.571680      1.114779      1.976717
  H       1.372136     -0.168840      1.862282
  H       0.936803      2.482038      3.004386
  H      -1.330673      1.944217      3.197777
  H      -1.013920      0.388221      2.442801
  H       0.120737      2.286658      0.906085
  H      -1.060486      2.474008     -0.098756
  O      -0.139217      2.722305      0.042532
41
Coordinates from ORCA-job /home/rudenko/2025/kie/for_orca/m-o2nc6h4chno2ch3_piperidine/orca/ts_opt/ts_opt E -1047.499343088131
  C      -2.826916      0.203738     -2.955731
  C      -1.563918      0.652016     -2.586983
  C      -0.496406     -0.236948     -2.447812
  C      -0.706122     -1.590207     -2.684930
  C      -1.974216     -2.018484     -3.048780
  C      -3.045522     -1.145304     -3.190609
  H      -3.642587      0.907274     -3.058156
  H      -1.402977      1.706413     -2.404103
  H       0.089764     -2.311142     -2.590552
  H      -4.017781     -1.516786     -3.474695
  N      -2.186788     -3.450238     -3.291098
  O      -3.315594     -3.827240     -3.578498
  O      -1.226666     -4.203628     -3.193321
  C       0.854902      0.302349     -2.049802
  C       1.758285     -0.654854     -1.288671
  H       1.252798     -0.945451     -0.368502
  H       2.693786     -0.160290     -1.028183
  H       1.981980     -1.549534     -1.866667
  N       1.602008      0.732240     -3.320543
  O       1.776360     -0.102363     -4.191995
  O       1.997690      1.884391     -3.380970
  H       0.728049      1.228095     -1.492557
  C      -0.342553      0.508898      4.446253
  C       0.839965     -0.384707      4.590107
  C       2.073153      0.191365      3.874029
  C       1.709535      0.680208      2.472362
  N       0.618358      1.666505      2.473758
  C      -0.600359      1.126548      3.115961
  H      -1.116632      0.524493      5.203005
  H       1.058767     -0.582357      5.641605
  H       0.612475     -1.365015      4.136106
  H       2.862379     -0.562605      3.813096
  H       2.470549      1.032907      4.450725
  H       2.575696      1.128017      1.982158
  H       1.386379     -0.164296      1.856792
  H       0.922856      2.479786      3.002565
  H      -1.339603      1.925978      3.180730
  H      -1.009905      0.376958      2.419290
  H       0.127902      2.288098      0.900460
  H      -1.051292      2.494365     -0.104493
  O      -0.127801      2.730805      0.038649
41
Coordinates from ORCA-job /home/rudenko/2025/kie/for_orca/m-o2nc6h4chno2ch3_piperidine/orca/ts_opt/ts_opt E -1047.499304433963
  C      -2.813256      0.225791     -2.921769
  C      -1.542084      0.674420     -2.579375
  C      -0.480844     -0.222568     -2.428428
  C      -0.701949     -1.576796     -2.638512
  C      -1.977678     -2.002344     -2.979142
  C      -3.044963     -1.128097     -3.122589
  H      -3.624823      0.930645     -3.028631
  H      -1.369623      1.733241     -2.424143
  H       0.090276     -2.301456     -2.537483
  H      -4.024093     -1.501427     -3.385109
  N      -2.205524     -3.437936     -3.190969
  O      -3.341272     -3.808395     -3.453127
  O      -1.249264     -4.196643     -3.100097
  C       0.877077      0.313917     -2.048691
  C       1.773615     -0.636375     -1.272283
  H       1.245039     -0.946092     -0.370841
  H       2.693517     -0.130438     -0.978584
  H       2.026427     -1.521326     -1.854172
  N       1.614934      0.713753     -3.335840
  O       1.824272     -0.150812     -4.168314
  O       1.957974      1.878697     -3.450837
  H       0.758589      1.252294     -1.510406
  C      -0.379955      0.433015      4.372456
  C       0.827535     -0.424710      4.533327
  C       2.059715      0.202006      3.861372
  C       1.718175      0.699715      2.457837
  N       0.601192      1.656954      2.446958
  C      -0.619061      1.078099      3.051433
  H      -1.188615      0.380172      5.090970
  H       1.023578     -0.632061      5.587623
  H       0.643511     -1.405308      4.059053
  H       2.874763     -0.522977      3.811564
  H       2.411679      1.046717      4.460930
  H       2.582478      1.177732      1.994404
  H       1.432923     -0.144831      1.823618
  H       0.872561      2.470283      2.995352
  H      -1.374908      1.863317      3.120735
  H      -1.003234      0.337551      2.329199
  H       0.147108      2.297346      0.878482
  H      -1.024049      2.562087     -0.121131
  O      -0.091742      2.762841      0.025160
41
Coordinates from ORCA-job /home/rudenko/2025/kie/for_orca/m-o2nc6h4chno2ch3_piperidine/orca/ts_opt/ts_opt E -1047.499354914120
  C      -2.820819      0.211367     -2.944344
  C      -1.555174      0.659918     -2.584921
  C      -0.489806     -0.231041     -2.440495
  C      -0.703743     -1.585583     -2.664574
  C      -1.974498     -2.013546     -3.019631
  C      -3.044088     -1.139526     -3.164807
  H      -3.634992      0.915597     -3.050311
  H      -1.390237      1.715870     -2.413555
  H       0.090743     -2.307671     -2.566152
  H      -4.018555     -1.511464     -3.441331
  N      -2.192354     -3.446963     -3.248458
  O      -3.323907     -3.822941     -3.525483
  O      -1.233465     -4.202007     -3.151458
  C       0.864059      0.308056     -2.050314
  C       1.766476     -0.645844     -1.284098
  H       1.252890     -0.945053     -0.371085
  H       2.695383     -0.145713     -1.010818
  H       2.002420     -1.536215     -1.864229
  N       1.605929      0.727784     -3.327994
  O       1.794505     -0.118656     -4.184660
  O       1.979642      1.885888     -3.409557
  H       0.740239      1.238503     -1.500132
  C      -0.356951      0.481568      4.420045
  C       0.833124     -0.401611      4.567481
  C       2.066707      0.190879      3.866244
  C       1.710064      0.685438      2.464950
  N       0.611541      1.663684      2.464671
  C      -0.608047      1.111549      3.094156
  H      -1.143942      0.472076      5.163829
  H       1.044580     -0.604295      5.619609
  H       0.618504     -1.381249      4.105372
  H       2.863729     -0.554709      3.807082
  H       2.450818      1.032282      4.451917
  H       2.576194      1.142772      1.983699
  H       1.397829     -0.157755      1.841934
  H       0.906577      2.475797      3.001058
  H      -1.351314      1.907154      3.162622
  H      -1.010860      0.367177      2.387737
  H       0.135150      2.292941      0.892975
  H      -1.040714      2.521749     -0.110520
  O      -0.113638      2.743795      0.033548
41
Coordinates from ORCA-job /home/rudenko/2025/kie/for_orca/m-o2nc6h4chno2ch3_piperidine/orca/ts_opt/ts_opt E -1047.499301225469
  C      -2.831635      0.187604     -2.959635
  C      -1.570608      0.643511     -2.589095
  C      -0.498736     -0.243798     -2.452649
  C      -0.700519     -1.594683     -2.702278
  C      -1.965499     -2.027733     -3.071350
  C      -3.042330     -1.162517     -3.204640
  H      -3.651237      0.885889     -3.055276
  H      -1.416191      1.699739     -2.398964
  H       0.099301     -2.312301     -2.612726
  H      -4.013334     -1.540211     -3.489922
  N      -2.170348     -3.460144     -3.322417
  O      -3.293164     -3.837207     -3.628049
  O      -1.208493     -4.209986     -3.219644
  C       0.849968      0.301065     -2.054568
  C       1.766701     -0.655228     -1.307651
  H       1.283251     -0.935797     -0.372477
  H       2.710690     -0.162301     -1.074546
  H       1.973052     -1.555444     -1.883774
  N       1.592678      0.746581     -3.321726
  O       1.730776     -0.067957     -4.218610
  O       2.023427      1.887251     -3.354491
  H       0.719144      1.219812     -1.485928
  C      -0.329057      0.550657      4.482595
  C       0.831117     -0.373983      4.608189
  C       2.065913      0.168385      3.869357
  C       1.691750      0.664463      2.472885
  N       0.624672      1.676102      2.489812
  C      -0.596637      1.165174      3.152713
  H      -1.078359      0.605392      5.261140
  H       1.063606     -0.575445      5.655986
  H       0.570149     -1.348346      4.159542
  H       2.833314     -0.605283      3.796537
  H       2.494680      0.999328      4.437372
  H       2.560264      1.091355      1.969511
  H       1.339392     -0.172101      1.862721
  H       0.956379      2.482986      3.012528
  H      -1.318965      1.980956      3.223398
  H      -1.031292      0.418816      2.466127
  H       0.123654      2.289160      0.915296
  H      -1.053458      2.461465     -0.099734
  O      -0.134012      2.714773      0.044441
41
Coordinates from ORCA-job /home/rudenko/2025/kie/for_orca/m-o2nc6h4chno2ch3_piperidine/orca/ts_opt/ts_opt E -1047.499356872784
  C      -2.823696      0.201102     -2.946907
  C      -1.559871      0.652778     -2.584983
  C      -0.491215     -0.234805     -2.444065
  C      -0.700645     -1.589482     -2.672762
  C      -1.969427     -2.020641     -3.030619
  C      -3.041904     -1.149541     -3.173571
  H      -3.640287      0.903229     -3.050425
  H      -1.399279      1.708731     -2.409047
  H       0.096149     -2.309290     -2.576778
  H      -4.014838     -1.523499     -3.452382
  N      -2.181695     -3.454078     -3.264235
  O      -3.309990     -3.832649     -3.551349
  O      -1.221587     -4.206724     -3.161144
  C       0.861241      0.308219     -2.055080
  C       1.773370     -0.645771     -1.299893
  H       1.275092     -0.939030     -0.376707
  H       2.708258     -0.147169     -1.045088
  H       1.997153     -1.539333     -1.879781
  N       1.599267      0.739716     -3.330636
  O       1.760582     -0.092255     -4.207179
  O       2.001697      1.889475     -3.389462
  H       0.735628      1.233784     -1.496848
  C      -0.350149      0.507229      4.442805
  C       0.825856     -0.396000      4.578577
  C       2.061772      0.175231      3.863590
  C       1.698749      0.675822      2.465891
  N       0.615067      1.670227      2.475876
  C      -0.606277      1.135288      3.117028
  H      -1.122446      0.523836      5.201375
  H       1.045368     -0.601872      5.628388
  H       0.589962     -1.371691      4.118879
  H       2.845059     -0.584172      3.796089
  H       2.466827      1.009902      4.444895
  H       2.567163      1.120121      1.976776
  H       1.367866     -0.162065      1.845405
  H       0.926656      2.477880      3.009347
  H      -1.339419      1.939731      3.188553
  H      -1.022874      0.393160      2.416388
  H       0.132798      2.295491      0.902464
  H      -1.040074      2.503453     -0.109976
  O      -0.115908      2.735665      0.036589
41
Coordinates from ORCA-job /home/rudenko/2025/kie/for_orca/m-o2nc6h4chno2ch3_piperidine/orca/ts_opt/ts_opt E -1047.499334522290
  C      -2.813267      0.218968     -2.924554
  C      -1.543171      0.671410     -2.582680
  C      -0.479727     -0.223044     -2.430317
  C      -0.697830     -1.578050     -2.637401
  C      -1.972563     -2.008066     -2.976788
  C      -3.041676     -1.135698     -3.123368
  H      -3.626523      0.922255     -3.033130
  H      -1.373772      1.730521     -2.428491
  H       0.095921     -2.300747     -2.534827
  H      -4.020027     -1.511689     -3.385245
  N      -2.196520     -3.444268     -3.185348
  O      -3.330681     -3.818300     -3.450025
  O      -1.238894     -4.200472     -3.088918
  C       0.877741      0.317061     -2.054515
  C       1.783844     -0.632265     -1.287561
  H       1.265957     -0.942174     -0.379857
  H       2.706546     -0.124791     -1.004355
  H       2.031801     -1.517045     -1.872031
  N       1.607949      0.725833     -3.342822
  O       1.805375     -0.131943     -4.185676
  O       1.958722      1.889249     -3.448298
  H       0.758540      1.251967     -1.511206
  C      -0.379261      0.448003      4.386225
  C       0.817163     -0.426542      4.536546
  C       2.052823      0.184107      3.855863
  C       1.707573      0.690001      2.456101
  N       0.603135      1.661603      2.455213
  C      -0.620137      1.097222      3.067479
  H      -1.180882      0.408893      5.113020
  H       1.018535     -0.638698      5.588832
  H       0.615863     -1.403280      4.062111
  H       2.856993     -0.552703      3.798082
  H       2.421977      1.022292      4.454237
  H       2.575018      1.157729      1.987757
  H       1.407006     -0.148882      1.821974
  H       0.888803      2.469972      3.002578
  H      -1.366028      1.891650      3.142401
  H      -1.017838      0.361925      2.347244
  H       0.148926      2.300186      0.885118
  H      -1.019575      2.558730     -0.120138
  O      -0.087840      2.759079      0.026770
41
Coordinates from ORCA-job /home/rudenko/2025/kie/for_orca/m-o2nc6h4chno2ch3_piperidine/orca/ts_opt/ts_opt E -1047.499366595522
  C      -2.816522      0.210577     -2.934312
  C      -1.549731      0.661940     -2.583059
  C      -0.483559     -0.227389     -2.436106
  C      -0.698185     -1.583905     -2.647955
  C      -1.970199     -2.014793     -2.994773
  C      -3.040371     -1.141945     -3.143139
  H      -3.631223      0.913941     -3.042969
  H      -1.384434      1.719204     -2.420901
  H       0.096791     -2.305032     -2.546698
  H      -4.015727     -1.515842     -3.413190
  N      -2.188598     -3.450000     -3.211153
  O      -3.320719     -3.828452     -3.483222
  O      -1.229613     -4.204308     -3.109163
  C       0.871972      0.315218     -2.056683
  C       1.783101     -0.635713     -1.296955
  H       1.275452     -0.939874     -0.382336
  H       2.710522     -0.131232     -1.026790
  H       2.021028     -1.523455     -1.880392
  N       1.602757      0.735620     -3.340578
  O       1.783865     -0.110661     -4.199096
  O       1.975949      1.893592     -3.424920
  H       0.750080      1.245850     -1.506229
  C      -0.368515      0.473702      4.410566
  C       0.817152     -0.416249      4.552351
  C       2.054206      0.175238      3.856575
  C       1.700980      0.682315      2.458897
  N       0.607664      1.666395      2.465307
  C      -0.615128      1.116167      3.089799
  H      -1.157773      0.459376      5.151961
  H       1.026669     -0.627850      5.603137
  H       0.597950     -1.391371      4.082920
  H       2.847505     -0.574006      3.792281
  H       2.442362      1.010198      4.448928
  H       2.569859      1.138552      1.981552
  H       1.384536     -0.154375      1.829296
  H       0.906747      2.472894      3.007821
  H      -1.353750      1.915289      3.164601
  H      -1.022124      0.380101      2.377227
  H       0.142814      2.300648      0.893349
  H      -1.026322      2.538657     -0.116572
  O      -0.097468      2.750978      0.030622
41
Coordinates from ORCA-job /home/rudenko/2025/kie/for_orca/m-o2nc6h4chno2ch3_piperidine/orca/ts_opt/ts_opt E -1047.499298325901
  C      -2.824828      0.188656     -2.940424
  C      -1.560499      0.649873     -2.586454
  C      -0.488103     -0.237151     -2.444226
  C      -0.692338     -1.590457     -2.674121
  C      -1.960621     -2.028803     -3.026799
  C      -3.038008     -1.165030     -3.164668
  H      -3.644742      0.885927     -3.040062
  H      -1.404157      1.708871     -2.412873
  H       0.107756     -2.307310     -2.580241
  H      -4.011764     -1.547426     -3.436597
  N      -2.168422     -3.464204     -3.256949
  O      -3.292403     -3.842817     -3.555015
  O      -1.207530     -4.213798     -3.146786
  C       0.863834      0.312466     -2.064174
  C       1.793579     -0.638661     -1.326639
  H       1.320283     -0.924045     -0.387016
  H       2.736901     -0.139429     -1.101361
  H       2.000444     -1.536725     -1.906478
  N       1.590141      0.756985     -3.341468
  O       1.709939     -0.055690     -4.242547
  O       2.027754      1.894963     -3.377116
  H       0.737628      1.232051     -1.496474
  C      -0.351674      0.529171      4.460298
  C       0.805297     -0.400015      4.580585
  C       2.045870      0.148536      3.856325
  C       1.681312      0.664058      2.464445
  N       0.617504      1.678884      2.488543
  C      -0.609462      1.163723      3.137762
  H      -1.107023      0.572831      5.233615
  H       1.030768     -0.615737      5.627065
  H       0.544589     -1.367671      4.117932
  H       2.811480     -0.626171      3.777838
  H       2.473465      0.970645      4.437499
  H       2.553864      1.094522      1.971324
  H       1.329657     -0.163086      1.841712
  H       0.948546      2.477527      3.023477
  H      -1.328826      1.982283      3.216402
  H      -1.044353      0.428902      2.438463
  H       0.137010      2.302358      0.912867
  H      -1.027412      2.491631     -0.114907
  O      -0.105454      2.729364      0.037244
