!  NUMFREQ B3LYP def2-TZVP CPCM D3 
%pal nprocs 102 end
%cpcm epsilon 78.4 end 
*xyz 0 1 
C   -1.6910213851371 2.49582877469083 -1.3121158048153
C   -1.33632020189334 1.16711027268318 -1.52485099161714
C   -2.15326813009062 0.13227273984686 -1.10713982767731
C   -3.3496079520723 0.44264698753263 -0.45214849024528
C   -3.70865269649955 1.7649019789986 -0.22945846056971
C   -2.8798210415074 2.79821029918309 -0.66020263283074
H   -1.03295139843352 3.28582412282602 -1.65015671599903
H   -0.41158653408903 0.94437428034829 -2.04717715403776
H   -4.00626012263254 -0.35032865845591 -0.11879366270081
H   -3.16247871417922 3.82900918097808 -0.48772969125236
C   -1.77035019126093 -1.30540565168547 -1.38008778875725
C   -1.96003282348806 -2.27008076331754 -0.23112352715423
H   -1.61642374158446 -3.25866915523664 -0.53871344359578
H   -2.99867789765122 -2.34012324955389 0.08584128252093
H   -1.38404063131498 -1.95809081537172 0.63596539043567
N   -2.62200890950566 -1.77285060916356 -2.58134736080646
O   -2.16887297706848 -1.5519675379187 -3.69354242355923
O   -3.69855399146092 -2.30294960664059 -2.37446400995338
N   1.1517929748801 0.08971840046217 0.83262358217679
C   1.88271655685675 -1.14429783825054 1.13762018609162
C   2.62117753761786 -1.01740962146695 2.46742771199155
C   3.55668336538745 0.19276472879784 2.45648463857306
C   2.79183143444531 1.45564721488639 2.06001206265705
C   2.05155904649716 1.24551581188392 0.74320181982756
H   1.45449168917282 2.12682720038571 0.49835208968663
H   2.79083471191827 1.11685251702074 -0.06639495605633
H   3.47078035647996 2.30683383757512 1.96483129105541
H   2.06534388138844 1.70293931525078 2.84107440935067
H   3.18122296439267 -1.93551062899404 2.66172694847851
H   1.88623310196243 -0.90862494872387 3.27178921596508
H   2.61916814141471 -1.37935167444451 0.3514125455232
H   -0.76312304803738 -1.35986221064887 -1.78916693955797
H   0.69407544640302 -0.00604680032498 -0.06889398460493
H   1.17269098850131 -1.96858823647564 1.19697113391778
H   4.03365146586583 0.3195791582168 3.43152318858659
H   4.35854884169303 0.01875259264407 1.72962305965067
H   -4.63783679164907 1.9889773879637 0.27899423112801
H   2.00935028423305 -1.53111650703865 -1.70692152567994
H   2.05146817995985 -0.13529556722331 -2.35695101519186
O   1.5082682104858 -0.92801672123943 -2.26809438095398
*
