! NEB-TS b3lyp D3 def2-TZVP CPCM

%pal
nprocs 102
end

%cpcm
epsilon 78.4
end

%neb
NEB_End_XYZFile "end.xyz"
Nimages 6
end


*XYZfile 0 2 start.xyz
