40
Coordinates from ORCA-job /home/rudenko/2025/kie/for_orca/m-o2nc6h4chno2ch3_piperazine/orca/ts_opt/ts_opt
  C   -3.25154787708898      0.16417190242647     -0.62128328019958
  C   -1.88182953596959     -0.04314807960876     -0.67689728784687
  C   -1.32174074509846     -1.13749871443168     -1.36671241328273
  C   -2.21612531396873     -2.00866339973191     -2.00591517419697
  C   -3.58284467495039     -1.78093781627731     -1.93769556575322
  C   -4.13226747840552     -0.70267106771001     -1.25562806793499
  H   -3.64317200509673      1.00840967109264     -0.07000942437487
  H   -1.22688934704186      0.65205847856176     -0.17727017370253
  H   -1.85786343050016     -2.85825864776376     -2.56392348363980
  H   -5.19807779568268     -0.55526658360347     -1.21625749381746
  N   -4.48241670181473     -2.70055770613270     -2.63625253128072
  O   -5.68911593600676     -2.47989388703055     -2.58900766870751
  O   -3.99585006536536     -3.64444038785644     -3.24492821821734
  C   0.10663813466494     -1.44888186607932     -1.37434272942723
  C   0.60469502023134     -2.85730028103970     -1.48075473643646
  H   1.23992653583509     -3.10640060650429     -0.63114048312470
  H   1.21531927710791     -2.99123783872181     -2.37470835640296
  H   -0.21472852187791     -3.56776200230115     -1.51822798078979
  N   1.03766569182185     -0.51121154381967     -1.25490847063855
  O   2.27262817180775     -0.82816017482402     -1.10051842369080
  O   0.74332198847392      0.76525169797578     -1.29161829781459
  H   0.26529015037705     -2.02574125730736      1.63936856578663
  C   1.56354191332971      3.66059698035953      1.52649767861368
  N   2.92474347497017      3.52936035307209      1.76308262895439
  C   3.56306665442095      2.31643060348071      1.25822134424787
  C   2.78444710064737      1.09028715617076      1.69107557119606
  N   1.35380951351492      1.22750503602719      1.28796906182523
  C   0.71707063847262      2.47223696593518      1.81724872175055
  H   1.13707558513230      4.64236128247469      1.68360543990709
  H   3.46284269639744      4.36654030666544      1.59399568131205
  H   4.57636640856453      2.24922022606980      1.65058419642971
  H   3.61965013820387      2.33019795371371      0.16236811707069
  H   3.17120092026138      0.21217687955303      1.17619075274951
  H   2.81457128709797      0.95255067451074      2.77109895349926
  H   1.28468859132609      1.17451143452476      0.23397192115309
  H   -0.26893430632125      2.56303470262489      1.36221297815525
  H   0.58021453332615      2.30478280204799      2.89464319053778
  H   0.79925098597004     -1.56747345247850      3.00366426273302
  H   0.83576143901139      0.40407434516975      1.63215576011854
  O   0.28961688422238     -1.27025413923451      2.24004543523929
