!  opt B3LYP def2-TZVP CPCM D3 
%pal nprocs 102 end
%cpcm epsilon 78.4 end 
*xyz 0 2 
C   0.87162042 -0.1752269 0.77489858
C   0.8430004 -0.97984025 -0.36224367
C   -0.33907082 -1.13926296 -1.0960956
C   -1.49843982 -0.47595324 -0.68753279
C   -1.45561556 0.32007733 0.46149119
C   -0.27941652 0.48012996 1.20109312
H   1.80235576 -0.05843414 1.33491636
H   1.75426164 -1.4839108 -0.68448265
H   -2.42455052 -0.58848181 -1.26155212
H   -0.25832086 1.10743922 2.09740429
N   -2.66035208 0.98012644 0.90140864
O   -2.63979836 1.63762629 1.93495473
O   -3.68276302 0.86681976 0.23728751
C   -0.37975422 -2.02324286 -2.2547173
C   -0.23555025 -3.4886363 -2.03560339
H   0.44843137 -3.9570602 -2.75936481
H   -1.20398242 -4.00430274 -2.14167728
H   0.13539208 -3.71725052 -1.02763518
N   -0.63148472 -1.55000738 -3.47475583
O   -0.72235288 -2.31671761 -4.4734839
O   -0.73992358 -0.31219685 -3.69141402
H   1.7534839 -1.90678408 -2.96973959
C   3.50968726 -5.43534798 0.55297111
C   4.5067217 -6.33762337 -0.0362318
C   5.43936152 -5.63701425 -1.0327601
C   4.64841271 -4.71954168 -1.96054609
N   3.9449273 -3.66483239 -1.13594692
C   2.9379129 -4.30748241 -0.20419744
H   3.11792545 -5.64392025 1.534282
H   5.11221618 -6.83852438 0.75220292
H   3.97449942 -7.18118076 -0.54550325
H   5.99948532 -6.38663321 -1.62957589
H   6.22141897 -5.06698046 -0.48960526
H   5.3207181 -4.20971914 -2.69116377
H   3.89698417 -5.29082089 -2.55305514
H   4.64998944 -3.13503046 -0.5777352
H   2.54212872 -3.51506559 0.48179995
H   2.06405819 -4.67673614 -0.8098579
H   3.4584915 -2.97233536 -1.77436144
H   3.05520992 -1.08714508 -2.96687659
O   2.71239185 -1.99234834 -2.94471722
*
