17
Coordinates from ORCA-job /home/rudenko/2025/kie/for_orca/ch3no2_ch2clcoo/orca/ts_opt/ts_opt E -1009.624661335666
  C      -2.180913     -0.821186     -0.107119
  H      -3.090375     -0.471276     -0.581760
  H      -1.126399     -0.544377     -0.993676
  H      -2.137514     -1.880179      0.118811
  N      -1.872324     -0.050765      1.024278
  O      -1.138797     -0.532536      1.913151
  O      -2.252934      1.134933      1.085571
  C       1.895606      1.274264      0.235917
  O       2.531332      2.142567      0.816025
  O       1.148514      1.518147     -0.800742
  C       1.965358     -0.169099      0.723475
  Cl      3.056516     -1.123091     -0.366749
  H       0.996818     -0.658579      0.712298
  H       2.405933     -0.205330      1.713111
  H      -0.565234      0.022422     -2.558235
  O      -0.183393     -0.304299     -1.732699
  H       0.547805      0.668384     -1.201658
17
Coordinates from ORCA-job /home/rudenko/2025/kie/for_orca/ch3no2_ch2clcoo/orca/ts_opt/ts_opt E -1009.624653833936
  C      -2.153719     -0.848587     -0.087288
  H      -3.084657     -0.598970     -0.583138
  H      -1.118576     -0.540447     -0.985863
  H      -2.028774     -1.886282      0.198966
  N      -1.913849      0.006939      0.998667
  O      -1.150326     -0.364105      1.914968
  O      -2.386217      1.160761      0.990855
  C       1.903847      1.249630      0.261058
  O       2.542932      2.100422      0.862990
  O       1.148546      1.524565     -0.761811
  C       1.979113     -0.208069      0.703004
  Cl      3.063200     -1.126094     -0.424527
  H       1.011174     -0.698480      0.683992
  H       2.427273     -0.274290      1.687664
  H      -0.593164      0.085161     -2.540244
  O      -0.192530     -0.269093     -1.735248
  H       0.545726      0.686940     -1.184044
17
Coordinates from ORCA-job /home/rudenko/2025/kie/for_orca/ch3no2_ch2clcoo/orca/ts_opt/ts_opt E -1009.624641386815
  C      -2.167056     -0.819939     -0.103454
  H      -3.080331     -0.466588     -0.568063
  H      -1.121294     -0.542733     -0.999232
  H      -2.123685     -1.879638      0.118973
  N      -1.845012     -0.053349      1.026714
  O      -1.102971     -0.539120      1.906277
  O      -2.220954      1.133486      1.094422
  C       1.882180      1.273229      0.235333
  O       2.512821      2.141143      0.821494
  O       1.149678      1.516751     -0.811822
  C       1.941073     -0.169011      0.727606
  Cl      3.043989     -1.129093     -0.345330
  H       0.971411     -0.655821      0.704872
  H       2.368328     -0.203716      1.723107
  H      -0.574479      0.028124     -2.566940
  O      -0.185185     -0.301867     -1.746254
  H       0.551487      0.668141     -1.217704
17
Coordinates from ORCA-job /home/rudenko/2025/kie/for_orca/ch3no2_ch2clcoo/orca/ts_opt/ts_opt E -1009.624677481910
  C      -2.153381     -0.835921     -0.090759
  H      -3.080833     -0.547071     -0.571595
  H      -1.118311     -0.542125     -0.993207
  H      -2.058490     -1.882550      0.173653
  N      -1.874291     -0.009961      1.008512
  O      -1.111217     -0.422472      1.907159
  O      -2.308174      1.158743      1.027370
  C       1.883745      1.255896      0.256008
  O       2.512282      2.113495      0.859284
  O       1.143575      1.519761     -0.780845
  C       1.956650     -0.197611      0.711761
  Cl      3.062218     -1.121352     -0.390063
  H       0.990950     -0.691532      0.681377
  H       2.389012     -0.253506      1.704087
  H      -0.590437      0.062279     -2.554505
  O      -0.191108     -0.283611     -1.745291
  H       0.547807      0.677539     -1.202946
17
Coordinates from ORCA-job /home/rudenko/2025/kie/for_orca/ch3no2_ch2clcoo/orca/ts_opt/ts_opt E -1009.624684848574
  C      -2.146953     -0.837842     -0.086236
  H      -3.078211     -0.564072     -0.568506
  H      -1.115971     -0.542022     -0.992801
  H      -2.040353     -1.880522      0.189010
  N      -1.874299      0.002770      1.003470
  O      -1.107441     -0.393220      1.906208
  O      -2.325804      1.164851      1.014134
  C       1.880174      1.250735      0.261597
  O       2.503623      2.106062      0.873262
  O       1.140134      1.520097     -0.774021
  C       1.956466     -0.205778      0.707047
  Cl      3.067869     -1.117900     -0.398715
  H       0.992448     -0.702293      0.670591
  H       2.386335     -0.267299      1.700117
  H      -0.594662      0.068150     -2.554141
  O      -0.191797     -0.280639     -1.747937
  H       0.548443      0.678923     -1.203079
17
Coordinates from ORCA-job /home/rudenko/2025/kie/for_orca/ch3no2_ch2clcoo/orca/ts_opt/ts_opt E -1009.624619949798
  C      -2.193050     -0.828744     -0.094340
  H      -3.107068     -0.552003     -0.606934
  H      -1.133034     -0.551097     -0.973391
  H      -2.103903     -1.869441      0.194277
  N      -1.946216      0.020517      0.994820
  O      -1.211767     -0.373120      1.925149
  O      -2.389941      1.185567      0.981624
  C       1.897958      1.250071      0.275110
  O       2.512354      2.112865      0.885469
  O       1.117667      1.516025     -0.731453
  C       2.036446     -0.212041      0.685866
  Cl      3.142743     -1.062448     -0.472958
  H       1.088934     -0.740238      0.667787
  H       2.498791     -0.279790      1.663825
  H      -0.563245      0.024694     -2.530552
  O      -0.185384     -0.306217     -1.704934
  H       0.538714      0.665400     -1.159365
17
Coordinates from ORCA-job /home/rudenko/2025/kie/for_orca/ch3no2_ch2clcoo/orca/ts_opt/ts_opt E -1009.624702788964
  C      -2.160256     -0.832732     -0.089388
  H      -3.085770     -0.550550     -0.577821
  H      -1.120738     -0.548567     -0.987828
  H      -2.065375     -1.875827      0.188495
  N      -1.884655      0.007361      0.999939
  O      -1.118203     -0.390710      1.902024
  O      -2.319685      1.175768      1.002389
  C       1.877350      1.252402      0.268367
  O       2.494921      2.110193      0.882475
  O       1.119790      1.521438     -0.754400
  C       1.973848     -0.206875      0.700673
  Cl      3.082673     -1.097420     -0.424686
  H       1.014305     -0.713132      0.669188
  H       2.414636     -0.272421      1.688698
  H      -0.576619      0.042485     -2.549761
  O      -0.186630     -0.294776     -1.732404
  H       0.540406      0.673363     -1.185959
17
Coordinates from ORCA-job /home/rudenko/2025/kie/for_orca/ch3no2_ch2clcoo/orca/ts_opt/ts_opt E -1009.624151700480
  C      -2.138955     -0.839768     -0.074811
  H      -3.079223     -0.591323     -0.552815
  H      -1.116472     -0.529863     -0.999946
  H      -2.008596     -1.877422      0.209379
  N      -1.881671      0.017309      1.005991
  O      -1.113881     -0.358763      1.916694
  O      -2.373734      1.162732      1.018158
  C       1.862893      1.238096      0.274717
  O       2.497722      2.091279      0.877566
  O       1.173419      1.503466     -0.798073
  C       1.958955     -0.219877      0.712398
  Cl      3.113924     -1.104900     -0.373912
  H       1.008523     -0.734339      0.657357
  H       2.369942     -0.276825      1.713598
  H      -0.635237      0.107242     -2.564312
  O      -0.208003     -0.264194     -1.781212
  H       0.570393      0.677151     -1.240776
17
Coordinates from ORCA-job /home/rudenko/2025/kie/for_orca/ch3no2_ch2clcoo/orca/ts_opt/ts_opt E -1009.624671899966
  C      -2.139258     -0.833364     -0.082287
  H      -3.073173     -0.555271     -0.556800
  H      -1.113519     -0.541988     -0.996747
  H      -2.035260     -1.876538      0.192083
  N      -1.853596      0.006454      1.004811
  O      -1.081114     -0.392794      1.901319
  O      -2.301929      1.169695      1.020340
  C       1.865468      1.247911      0.263877
  O       2.475268      2.105230      0.886385
  O       1.135962      1.516920     -0.779567
  C       1.943765     -0.209369      0.706777
  Cl      3.078061     -1.110755     -0.384545
  H       0.983773     -0.711833      0.654576
  H       2.358958     -0.270571      1.706084
  H      -0.600970      0.064579     -2.562335
  O      -0.193319     -0.284049     -1.758511
  H       0.550883      0.675742     -1.215461
17
Coordinates from ORCA-job /home/rudenko/2025/kie/for_orca/ch3no2_ch2clcoo/orca/ts_opt/ts_opt E -1009.624067150166
  C      -2.200023     -0.831437     -0.096406
  H      -3.111304     -0.564654     -0.618905
  H      -1.134300     -0.570317     -0.965721
  H      -2.110952     -1.865497      0.214725
  N      -1.951769      0.040238      0.973930
  O      -1.167878     -0.313676      1.878713
  O      -2.362082      1.215950      0.912543
  C       1.868749      1.251041      0.314935
  O       2.507343      2.104347      0.913021
  O       1.057305      1.525958     -0.663163
  C       2.040900     -0.220080      0.676831
  Cl      3.099992     -1.026442     -0.554625
  H       1.095566     -0.755095      0.680571
  H       2.545180     -0.311955      1.631846
  H      -0.520667     -0.013691     -2.516795
  O      -0.169524     -0.326262     -1.672458
  H       0.513464      0.661572     -1.109042
17
Coordinates from ORCA-job /home/rudenko/2025/kie/for_orca/ch3no2_ch2clcoo/orca/ts_opt/ts_opt E -1009.624705756007
  C      -2.172006     -0.829604     -0.082918
  H      -3.097459     -0.576199     -0.586976
  H      -1.127378     -0.558245     -0.978189
  H      -2.064723     -1.861810      0.229281
  N      -1.914197      0.049932      0.979606
  O      -1.146502     -0.306529      1.897800
  O      -2.373294      1.208798      0.945553
  C       1.867743      1.238674      0.295531
  O       2.465646      2.094823      0.930759
  O       1.084698      1.517515     -0.705453
  C       2.015527     -0.230542      0.677182
  Cl      3.145601     -1.043388     -0.485043
  H       1.072792     -0.766404      0.632969
  H       2.465173     -0.315127      1.659747
  H      -0.565871      0.022543     -2.538290
  O      -0.184892     -0.309131     -1.714491
  H       0.529143      0.664695     -1.157070
17
Coordinates from ORCA-job /home/rudenko/2025/kie/for_orca/ch3no2_ch2clcoo/orca/ts_opt/ts_opt E -1009.624348938539
  C      -2.126429     -0.827683     -0.085051
  H      -3.058982     -0.507013     -0.534563
  H      -1.106299     -0.535424     -1.009763
  H      -2.049149     -1.882135      0.152164
  N      -1.803534     -0.034774      1.026259
  O      -1.038848     -0.489816      1.902655
  O      -2.214947      1.140388      1.086143
  C       1.850029      1.261108      0.246344
  O       2.479260      2.120833      0.845804
  O       1.167570      1.509930     -0.833371
  C       1.893451     -0.184481      0.729583
  Cl      3.036187     -1.134050     -0.312096
  H       0.927105     -0.672291      0.669509
  H       2.285222     -0.225386      1.739283
  H      -0.612648      0.069866     -2.582219
  O      -0.194349     -0.282257     -1.785398
  H       0.566361      0.673185     -1.255281
17
Coordinates from ORCA-job /home/rudenko/2025/kie/for_orca/ch3no2_ch2clcoo/orca/ts_opt/ts_opt E -1009.624716293435
  C      -2.167290     -0.825175     -0.083567
  H      -3.090776     -0.543178     -0.575812
  H      -1.123779     -0.548499     -0.983846
  H      -2.076539     -1.867134      0.199848
  N      -1.895127      0.020379      1.002519
  O      -1.140144     -0.376749      1.914542
  O      -2.327390      1.189784      0.996293
  C       1.865898      1.246125      0.277184
  O       2.462890      2.108606      0.904768
  O       1.122220      1.511349     -0.757126
  C       1.991338     -0.216317      0.690846
  Cl      3.143818     -1.059070     -0.427761
  H       1.046969     -0.746840      0.633977
  H       2.415925     -0.285297      1.685669
  H      -0.585233      0.032460     -2.549544
  O      -0.189644     -0.304274     -1.734706
  H       0.546864      0.663829     -1.193283
17
Coordinates from ORCA-job /home/rudenko/2025/kie/for_orca/ch3no2_ch2clcoo/orca/ts_opt/ts_opt E -1009.623753635557
  C      -2.106849     -0.832534     -0.076400
  H      -3.058758     -0.596300     -0.538114
  H      -1.105478     -0.579333     -1.005644
  H      -1.976914     -1.854276      0.261509
  N      -1.779805      0.080935      0.937769
  O      -0.942909     -0.241526      1.806728
  O      -2.268097      1.228479      0.914495
  C       1.793465      1.234124      0.328336
  O       2.408647      2.071602      0.971262
  O       0.988899      1.536591     -0.647838
  C       1.916305     -0.243895      0.686641
  Cl      3.013329     -1.065181     -0.500440
  H       0.957677     -0.754536      0.641880
  H       2.373768     -0.353403      1.663202
  H      -0.533907      0.008644     -2.568733
  O      -0.167622     -0.313305     -1.734564
  H       0.488248      0.673914     -1.140087
17
Coordinates from ORCA-job /home/rudenko/2025/kie/for_orca/ch3no2_ch2clcoo/orca/ts_opt/ts_opt E -1009.624066299805
  C      -2.188847     -0.820172     -0.072810
  H      -3.126975     -0.629351     -0.579623
  H      -1.144544     -0.598805     -0.981468
  H      -2.052456     -1.817056      0.329899
  N      -1.922240      0.157885      0.897691
  O      -1.083956     -0.078005      1.791768
  O      -2.453948      1.281795      0.800755
  C       1.814513      1.198644      0.382972
  O       2.416994      2.041785      1.030383
  O       0.921886      1.501297     -0.515918
  C       2.075627     -0.283856      0.639102
  Cl      3.195083     -0.931749     -0.632765
  H       1.162868     -0.868590      0.595622
  H       2.580914     -0.411693      1.589434
  H      -0.493098     -0.033755     -2.536194
  O      -0.166844     -0.347931     -1.682930
  H       0.465023      0.639556     -1.055918
17
Coordinates from ORCA-job /home/rudenko/2025/kie/for_orca/ch3no2_ch2clcoo/orca/ts_opt/ts_opt E -1009.624623248760
  C      -2.180312     -0.823087     -0.075756
  H      -3.109679     -0.593518     -0.583106
  H      -1.132482     -0.571843     -0.979223
  H      -2.063165     -1.842503      0.272559
  N      -1.923656      0.096168      0.952666
  O      -1.131708     -0.211954      1.867174
  O      -2.408825      1.242949      0.888117
  C       1.844718      1.220896      0.331583
  O       2.438258      2.071909      0.977325
  O       1.030591      1.512644     -0.641964
  C       2.041578     -0.255970      0.662509
  Cl      3.175411     -0.998196     -0.543600
  H       1.113063     -0.814227      0.616537
  H       2.511351     -0.358355      1.633893
  H      -0.541298     -0.003635     -2.542450
  O      -0.176205     -0.326099     -1.708016
  H       0.512359      0.654820     -1.128247
17
Coordinates from ORCA-job /home/rudenko/2025/kie/for_orca/ch3no2_ch2clcoo/orca/ts_opt/ts_opt E -1009.624747551262
  C      -2.168282     -0.816562     -0.077209
  H      -3.096280     -0.559933     -0.574787
  H      -1.128392     -0.567234     -0.981772
  H      -2.068416     -1.845334      0.248510
  N      -1.889375      0.076211      0.968996
  O      -1.114346     -0.273704      1.883379
  O      -2.339524      1.238191      0.923580
  C       1.833211      1.227741      0.317155
  O       2.415488      2.084288      0.965923
  O       1.053355      1.508234     -0.686228
  C       2.012606     -0.244947      0.670290
  Cl      3.175377     -1.003762     -0.496592
  H       1.083277     -0.801260      0.603787
  H       2.454370     -0.338982      1.655474
  H      -0.559493     -0.005132     -2.547472
  O      -0.182889     -0.329052     -1.718668
  H       0.519314      0.651237     -1.154365
17
Coordinates from ORCA-job /home/rudenko/2025/kie/for_orca/ch3no2_ch2clcoo/orca/ts_opt/ts_opt E -1009.624768408569
  C      -2.159587     -0.813229     -0.076452
  H      -3.086251     -0.523255     -0.557990
  H      -1.121576     -0.560753     -0.989888
  H      -2.079900     -1.852653      0.219315
  N      -1.853774      0.042951      0.992082
  O      -1.087144     -0.352957      1.894981
  O      -2.268069      1.218831      0.976559
  C       1.829454      1.239834      0.294799
  O       2.405603      2.102021      0.941672
  O       1.085257      1.508787     -0.738288
  C       1.974027     -0.227497      0.684499
  Cl      3.152300     -1.028600     -0.437802
  H       1.038741     -0.770957      0.605539
  H       2.388425     -0.308525      1.682738
  H      -0.569380     -0.001435     -2.563249
  O      -0.182416     -0.326207     -1.739497
  H       0.534290      0.653643     -1.189017
17
Coordinates from ORCA-job /home/rudenko/2025/kie/for_orca/ch3no2_ch2clcoo/orca/ts_opt/ts_opt E -1009.624775011866
  C      -2.159253     -0.813586     -0.077353
  H      -3.086527     -0.530454     -0.561690
  H      -1.122013     -0.561511     -0.988456
  H      -2.074998     -1.851067      0.224000
  N      -1.859336      0.049555      0.987515
  O      -1.089972     -0.336805      1.892014
  O      -2.283983      1.221600      0.968301
  C       1.829007      1.237580      0.299405
  O       2.409088      2.098287      0.944634
  O       1.077808      1.509377     -0.728080
  C       1.979644     -0.231029      0.682566
  Cl      3.152797     -1.025626     -0.449947
  H       1.044989     -0.776434      0.607852
  H       2.400663     -0.314547      1.677800
  H      -0.566936     -0.002870     -2.560628
  O      -0.182160     -0.326538     -1.735482
  H       0.531181      0.654069     -1.182450
17
Coordinates from ORCA-job /home/rudenko/2025/kie/for_orca/ch3no2_ch2clcoo/orca/ts_opt/ts_opt E -1009.624773439780
  C      -2.161172     -0.813053     -0.078119
  H      -3.088760     -0.531473     -0.562697
  H      -1.123236     -0.562239     -0.988485
  H      -2.076040     -1.849963      0.225017
  N      -1.862611      0.051826      0.985930
  O      -1.088910     -0.330634      1.888283
  O      -2.293261      1.221679      0.967851
  C       1.830219      1.237074      0.300954
  O       2.413293      2.096846      0.944646
  O       1.071839      1.510901     -0.720917
  C       1.982977     -0.232039      0.681548
  Cl      3.154398     -1.024216     -0.454552
  H       1.048590     -0.778102      0.608607
  H       2.406609     -0.316381      1.675600
  H      -0.562229     -0.007095     -2.561569
  O      -0.180908     -0.328001     -1.733760
  H       0.529202      0.654871     -1.178337
17
Coordinates from ORCA-job /home/rudenko/2025/kie/for_orca/ch3no2_ch2clcoo/orca/ts_opt/ts_opt E -1009.624773836949
  C      -2.160481     -0.812054     -0.078628
  H      -3.087713     -0.527128     -0.561964
  H      -1.122893     -0.561709     -0.988698
  H      -2.077656     -1.849971      0.221723
  N      -1.859576      0.049290      0.987672
  O      -1.086881     -0.337635      1.888981
  O      -2.287201      1.220269      0.972790
  C       1.829177      1.238001      0.299461
  O       2.412528      2.098358      0.942116
  O       1.073320      1.510576     -0.724584
  C       1.980129     -0.230595      0.682522
  Cl      3.153308     -1.024899     -0.450282
  H       1.045635     -0.776329      0.608427
  H       2.401668     -0.313807      1.677566
  H      -0.562402     -0.008465     -2.562362
  O      -0.180839     -0.328593     -1.734378
  H       0.529876      0.654693     -1.180363
17
Coordinates from ORCA-job /home/rudenko/2025/kie/for_orca/ch3no2_ch2clcoo/orca/ts_opt/ts_opt E -1009.624773522959
  C      -2.161196     -0.811122     -0.079260
  H      -3.087914     -0.523386     -0.561929
  H      -1.123118     -0.561402     -0.988742
  H      -2.080498     -1.849852      0.218892
  N      -1.858983      0.047258      0.989121
  O      -1.087015     -0.343081      1.889568
  O      -2.284754      1.218916      0.977040
  C       1.829546      1.238878      0.298209
  O       2.413136      2.099702      0.939989
  O       1.074099      1.510692     -0.726402
  C       1.979517     -0.229333      0.683057
  Cl      3.153273     -1.025195     -0.448077
  H       1.044963     -0.774898      0.608891
  H       2.400287     -0.311589      1.678509
  H      -0.561424     -0.010737     -2.563157
  O      -0.180410     -0.329530     -1.734426
  H       0.530491      0.654678     -1.181283
