!  opt B3LYP def2-TZVP CPCM D3 
%pal nprocs 102 end
%cpcm epsilon 78.4 end 
*xyz 0 2 
C   -0.84181814 0.79034419 0.96301806
C   0.52023545 0.77596822 1.25823005
C   1.3279847 -0.27837062 0.81924256
C   0.77677308 -1.31503632 0.06947836
C   -0.58899366 -1.28096078 -0.22910671
C   -1.41003918 -0.2374399 0.21794498
H   -1.46720337 1.61520382 1.31696409
H   0.95440362 1.60034795 1.8381409
H   1.40322598 -2.14430693 -0.28533778
H   -2.48098317 -0.22674197 -0.01626003
N   -1.16003318 -2.34599365 -1.01554189
O   -2.34920295 -2.30572765 -1.30336528
O   -0.44190682 -3.26786294 -1.38146586
C   2.78399276 -0.28713036 1.19173395
C   3.18855607 -1.57161835 1.90602226
H   4.20266372 -1.50998977 2.33087387
H   3.16039465 -2.45474798 1.24999586
H   2.50738999 -1.78224453 2.7469481
N   3.62469879 -0.1571539 -0.04684831
O   4.51255854 0.68128848 -0.05428822
O   3.4110826 -0.89092759 -0.99666843
H   3.02902943 0.60602628 1.85398883
C   1.657986 -0.03597478 6.94292127
C   2.60803531 0.23136275 8.03354623
C   3.25453416 1.6235833 7.95372599
C   3.61008178 1.9808697 6.50108382
N   2.41834977 1.93844337 5.62151387
C   1.83698593 0.57011042 5.60644014
H   0.86011725 -0.73721267 7.09311087
H   2.12774768 0.10236731 9.02814546
H   3.4046121 -0.55141054 8.00479144
H   4.15837169 1.66285797 8.58861016
H   2.56368143 2.38252763 8.36731479
H   4.05085395 3.0001938 6.44341831
H   4.37445099 1.28046792 6.10091472
H   1.71634328 2.60520275 5.96188633
H   0.8760116 0.61329405 5.04088064
H   2.52192033 -0.08177691 5.00155473
H   2.88108672 2.24387647 3.79928044
H   2.4637829 3.14599819 2.62797977
O   3.06819163 2.43565984 2.85337915
*
