!  opt B3LYP def2-TZVP CPCM D3 
%pal nprocs 18 end
%cpcm epsilon 78.4 end 
*xyz 0 1 
C   0.56394 -0.78932 0.40612
H   0.87302 -1.453 -0.4274
H   1.04773 0.1988 0.23749
H   0.97752 -1.20221 1.34992
N   -0.88335 -0.6387 0.46568
O   -1.41996 -0.44427 1.54743
O   -1.53217 -0.70145 -0.5692
H   3.96644 -1.74909 0.21145
O   3.25667 -1.26342 0.64883
H   3.45185 -0.34098 0.44297
*
