!  opt B3LYP def2-TZVP CPCM D3 
%pal nprocs 102 end
%cpcm epsilon 78.4 end 
*xyz -1 1 
C   0.11175832 1.08718009 0.93417962
C   0.24293951 1.32294199 -0.42266506
C   0.17506409 0.26973435 -1.35761678
C   0.02220332 -1.04733242 -0.86775228
C   -0.10948162 -1.29830062 0.48412144
C   -0.08028398 -0.22614694 1.39190241
H   0.15551304 1.9172039 1.64859207
H   0.40346087 2.3479365 -0.7669491
H   -0.01314582 -1.88463015 -1.56697483
C   0.2467326 0.48405769 -2.77956527
H   2.24644911 1.25564327 -2.92751848
C   0.63776806 -0.64533444 -3.67671897
H   0.96681657 -0.30380525 -4.67049986
H   -0.20243896 -1.33548897 -3.84606453
H   1.46828699 -1.23382166 -3.25918048
N   -0.14421173 1.64092332 -3.36082237
O   -0.15375724 1.76847218 -4.60934693
O   -0.50537527 2.63346471 -2.68674929
O   5.27864752 2.83647514 -3.03075641
H   6.00058933 2.23261582 -2.83170762
H   -0.24622217 -2.32250148 0.84724683
N   -0.24939549 -0.47425743 2.78636538
O   -0.37643981 -1.62796617 3.18852407
O   -0.27219602 0.46933002 3.5727237
H   3.37091739 0.52658175 -2.18533791
H   4.48619923 2.28340503 -2.98839786
O   3.20203785 1.13067803 -2.92127008
*
