!  NUMFREQ B3LYP def2-TZVP CPCM D3 
%pal nprocs 18 end
%cpcm epsilon 78.4 end 
*xyz 0 1 
C   0.53718366791371 -0.85510417312979 0.39442541633536
H   0.67897126752168 -1.75667571143495 -0.192162478266
H   1.01696030764946 -0.00980255047892 -0.09617063360082
H   0.87997962124491 -0.96189468995881 1.41630267011959
N   -0.92465725062461 -0.55335603714967 0.42208244154224
O   -1.40918389993222 -0.14173520998524 1.46418776252197
O   -1.55455538458488 -0.71487559149105 -0.61108572696602
H   3.66652000177299 -0.8963847885935 -0.24616489632751
O   3.79612583755679 -1.51054577273253 0.4871474076621
H   3.61434583148215 -0.98326547504551 1.27472803697909
*
